 Entering Gaussian System
 *********************************************
 Gaussian 98:
 frequency output generated by the xtb code
 *********************************************
                         Standard orientation:
 --------------------------------------------------------------------
  Center     Atomic     Atomic              Coordinates (Angstroms)
  Number     Number      Type              X           Y           Z
 --------------------------------------------------------------------
    1          8             0       -1.710032    0.504940    2.495167
    2          6             0       -0.969465    0.116161    1.597581
    3          6             0        0.271249    0.873837    1.346275
    4          6             0        0.543357    2.144921    1.802904
    5          6             0        1.863577    2.433346    1.429806
    6          6             0        2.326278    1.311400    0.775903
    7          6             0        3.596788    1.034545    0.190939
    8          7             0        4.596119    1.841385    0.189852
    9          6             0        5.680212    1.312647   -0.435205
   10          6             0        6.915385    1.937494   -0.597869
   11          6             0        7.920157    1.263901   -1.256859
   12          6             0        7.718601   -0.021678   -1.757980
   13          6             0        6.504137   -0.662226   -1.610096
   14          6             0        5.488815    0.007402   -0.949077
   15         16             0        3.872536   -0.528163   -0.608197
   16          8             0        1.359748    0.370799    0.725034
   17          7             0       -1.255521   -0.980836    0.862907
   18          6             0       -0.657495   -1.369405   -0.391969
   19          6             0       -1.695989   -1.215785   -1.504025
   20          6             0       -2.900461   -2.107211   -1.220823
   21          6             0       -3.490270   -1.893336    0.184977
   22          7             0       -4.421950   -0.798157    0.258941
   23          6             0       -4.110636    0.612394    0.330487
   24          6             0       -5.476480    1.254390    0.631607
   25          7             0       -6.399191    0.181360    0.342495
   26          6             0       -5.767217   -1.033992    0.300590
   27          8             0       -6.299462   -2.120765    0.267705
   28          6             0       -2.379024   -1.814106    1.243977
   29          1             0       -0.139218    2.771772    2.338142
   30          1             0        2.422217    3.327674    1.608685
   31          1             0        7.058227    2.930975   -0.204864
   32          1             0        8.881630    1.736666   -1.388846
   33          1             0        8.524530   -0.525649   -2.269533
   34          1             0        6.345026   -1.656996   -1.995905
   35          1             0        0.218420   -0.764591   -0.608161
   36          1             0       -0.343405   -2.417363   -0.320740
   37          1             0       -1.998902   -0.169400   -1.563626
   38          1             0       -1.247219   -1.492607   -2.459283
   39          1             0       -3.685389   -1.936869   -1.958686
   40          1             0       -2.589586   -3.151079   -1.301028
   41          1             0       -4.113873   -2.767224    0.418418
   42          1             0       -3.710946    0.973671   -0.624912
   43          1             0       -3.390051    0.820502    1.123653
   44          1             0       -5.541933    1.574570    1.679247
   45          1             0       -5.676232    2.117981   -0.008204
   46          1             0       -7.357427    0.227679    0.642897
   47          1             0       -1.997948   -2.828037    1.411493
   48          1             0       -2.781681   -1.426936    2.181556
 --------------------------------------------------------------------
     1 basis functions        1 primitive gaussians
     1 alpha electrons        1 beta electrons

 Harmonic frequencies (cm**-1), IR intensities (km*mol⁻¹),
 Raman scattering activities (A**4/amu), Raman depolarization ratios,
 reduced masses (AMU), force constants (mDyne/A) and normal coordinates:
                      1                      2                      3
                        a                      a                      a 
 Frequencies --     8.6736                19.0472                21.5771
 Red. masses --     5.6238                 6.3355                 5.5512
 Frc consts  --     0.0000                 0.0000                 0.0000
 IR Inten    --     0.5435                 0.3785                 2.0607
 Raman Activ --     0.0000                 0.0000                 0.0000
 Depolar     --     0.0000                 0.0000                 0.0000
 Atom AN      X      Y      Z        X      Y      Z        X      Y      Z
   1   8     0.01   0.00  -0.11    -0.08   0.18  -0.11    -0.06  -0.07  -0.09
   2   6    -0.00   0.04  -0.12    -0.02   0.12  -0.04    -0.03  -0.11  -0.03
   3   6    -0.01   0.06  -0.13     0.01   0.08   0.01    -0.02  -0.13  -0.02
   4   6    -0.02   0.07  -0.16     0.06   0.03   0.13    -0.04  -0.12  -0.02
   5   6    -0.01   0.06  -0.14     0.08  -0.00   0.16    -0.05  -0.10  -0.01
   6   6     0.00   0.03  -0.09     0.03   0.03   0.07    -0.03  -0.09  -0.01
   7   6     0.02   0.01  -0.03     0.02   0.02   0.04    -0.01  -0.05  -0.01
   8   7     0.03   0.01  -0.03     0.10  -0.08   0.20    -0.06   0.00   0.00
   9   6     0.05  -0.02   0.04     0.05  -0.08   0.11    -0.02   0.06   0.01
  10   6     0.06  -0.03   0.07     0.11  -0.17   0.24    -0.05   0.12   0.02
  11   6     0.08  -0.06   0.14     0.06  -0.15   0.14    -0.01   0.17   0.03
  12   6     0.10  -0.08   0.18    -0.06  -0.05  -0.08     0.06   0.16   0.03
  13   6     0.09  -0.07   0.15    -0.12   0.04  -0.21     0.09   0.10   0.02
  14   6     0.07  -0.04   0.09    -0.07   0.03  -0.11     0.05   0.05   0.01
  15  16     0.08  -0.04   0.07    -0.20   0.20  -0.35     0.12  -0.05  -0.00
  16   8     0.00   0.04  -0.10    -0.02   0.10  -0.03    -0.01  -0.12  -0.02
  17   7     0.00   0.06  -0.17     0.00   0.09  -0.00    -0.03  -0.15   0.01
  18   6    -0.04   0.15  -0.20     0.04   0.03   0.03     0.00  -0.20   0.04
  19   6    -0.10   0.19  -0.14     0.05  -0.05   0.01     0.07  -0.11  -0.01
  20   6    -0.06   0.13  -0.14     0.07  -0.06   0.02    -0.02  -0.00  -0.07
  21   6    -0.00   0.02  -0.10     0.04  -0.01   0.00    -0.06   0.02  -0.09
  22   7    -0.05  -0.03   0.02    -0.00  -0.04  -0.08    -0.01   0.07  -0.12
  23   6    -0.11  -0.01   0.02    -0.05  -0.02  -0.20     0.06   0.05  -0.29
  24   6    -0.11  -0.09   0.21    -0.05  -0.04  -0.16     0.13   0.15  -0.17
  25   7    -0.10  -0.14   0.33    -0.03  -0.12   0.03     0.04   0.15   0.17
  26   6    -0.03  -0.10   0.19     0.01  -0.09   0.08    -0.01   0.12   0.19
  27   8     0.02  -0.15   0.28     0.06  -0.13   0.27    -0.07   0.15   0.49
  28   6     0.05   0.01  -0.15     0.01   0.08   0.02    -0.10  -0.05  -0.04
  29   1    -0.01   0.03  -0.06     0.03   0.00   0.05    -0.02  -0.04  -0.01
  30   1    -0.00   0.02  -0.04     0.04  -0.01   0.07    -0.02  -0.03  -0.00
  31   1     0.01  -0.01   0.01     0.06  -0.07   0.12    -0.03   0.04   0.01
  32   1     0.03  -0.02   0.05     0.03  -0.07   0.07    -0.01   0.06   0.01
  33   1     0.03  -0.03   0.07    -0.03  -0.01  -0.04     0.03   0.06   0.01
  34   1     0.03  -0.03   0.05    -0.06   0.04  -0.11     0.04   0.03   0.01
  35   1    -0.02   0.06  -0.06     0.01   0.01   0.00     0.02  -0.08   0.02
  36   1    -0.00   0.05  -0.08     0.02   0.01   0.03    -0.03  -0.07   0.02
  37   1    -0.04   0.05  -0.02     0.01  -0.02  -0.01     0.05  -0.02  -0.01
  38   1    -0.04   0.08  -0.05     0.02  -0.02   0.01     0.03  -0.04   0.00
  39   1    -0.03   0.04  -0.03     0.02  -0.03  -0.00     0.01   0.02  -0.03
  40   1    -0.01   0.04  -0.06     0.03  -0.02   0.02    -0.03  -0.01  -0.02
  41   1     0.01  -0.01  -0.03     0.02  -0.01   0.01    -0.04   0.02  -0.03
  42   1    -0.07   0.01  -0.01    -0.03  -0.03  -0.07    -0.01  -0.02  -0.11
  43   1    -0.01  -0.00  -0.02    -0.00   0.02  -0.08     0.05   0.03  -0.12
  44   1     0.00  -0.03   0.06     0.01   0.02  -0.06     0.09   0.10  -0.06
  45   1    -0.07  -0.03   0.07    -0.04  -0.04  -0.07     0.02   0.02  -0.08
  46   1    -0.02  -0.06   0.13    -0.00  -0.03   0.03     0.03   0.06   0.09
  47   1     0.03   0.00  -0.06     0.01   0.03   0.02    -0.05  -0.02  -0.00
  48   1     0.02  -0.01  -0.03    -0.01   0.04  -0.00    -0.03  -0.00  -0.02
                      4                      5                      6
                        a                      a                      a 
 Frequencies --    28.5381                42.5902                62.8763
 Red. masses --     6.2659                 6.7275                 4.4803
 Frc consts  --     0.0000                 0.0000                 0.0000
 IR Inten    --     0.4938                 0.0966                 0.1074
 Raman Activ --     0.0000                 0.0000                 0.0000
 Depolar     --     0.0000                 0.0000                 0.0000
 Atom AN      X      Y      Z        X      Y      Z        X      Y      Z
   1   8     0.08  -0.01   0.01     0.05  -0.24   0.11     0.11  -0.12   0.12
   2   6     0.01  -0.03  -0.03     0.03  -0.12   0.05     0.03  -0.00   0.00
   3   6    -0.01  -0.04  -0.11    -0.05  -0.01  -0.00     0.02   0.01   0.04
   4   6    -0.00  -0.03  -0.13    -0.16   0.05  -0.09     0.12  -0.12   0.35
   5   6    -0.01  -0.03  -0.16    -0.19   0.15  -0.15     0.10  -0.08   0.29
   6   6    -0.02  -0.03  -0.16    -0.11   0.15  -0.08    -0.01   0.07  -0.04
   7   6    -0.00  -0.01  -0.13    -0.10   0.14  -0.07    -0.04   0.11  -0.13
   8   7     0.01  -0.02   0.02    -0.06   0.09  -0.06    -0.06   0.13  -0.20
   9   6     0.06   0.02   0.07    -0.07   0.00  -0.01    -0.04   0.06  -0.11
  10   6     0.08   0.01   0.25    -0.01  -0.10   0.06    -0.03   0.04  -0.12
  11   6     0.14   0.04   0.29    -0.02  -0.19   0.13     0.02  -0.05   0.03
  12   6     0.16   0.09   0.16    -0.09  -0.18   0.13     0.05  -0.11   0.19
  13   6     0.14   0.10  -0.01    -0.15  -0.08   0.06     0.03  -0.08   0.18
  14   6     0.08   0.06  -0.06    -0.14   0.01  -0.00    -0.01   0.01   0.02
  15  16     0.07   0.09  -0.40    -0.31   0.20  -0.11    -0.04   0.07   0.01
  16   8    -0.02  -0.04  -0.16    -0.03   0.07   0.00    -0.07   0.15  -0.23
  17   7    -0.04  -0.05   0.02     0.09  -0.13   0.03    -0.06   0.11  -0.13
  18   6    -0.10  -0.09   0.01     0.10  -0.08   0.02    -0.08   0.14  -0.14
  19   6    -0.15  -0.14   0.05     0.14   0.02   0.00    -0.16  -0.10  -0.10
  20   6    -0.14  -0.12   0.14     0.10   0.05  -0.07    -0.06  -0.20   0.04
  21   6    -0.08  -0.04   0.16     0.08  -0.02  -0.07    -0.02  -0.07   0.04
  22   7    -0.04   0.00   0.16     0.13   0.01  -0.02     0.01  -0.04  -0.03
  23   6     0.01  -0.01   0.19     0.17  -0.00   0.03     0.06  -0.04  -0.03
  24   6     0.01   0.03   0.09     0.20   0.04   0.06     0.08   0.03  -0.12
  25   7    -0.01   0.09  -0.06     0.17   0.08   0.08     0.05   0.03  -0.03
  26   6    -0.06   0.06  -0.02     0.12   0.05   0.02     0.01   0.01   0.02
  27   8    -0.12   0.10  -0.13     0.09   0.08   0.02    -0.03   0.03   0.11
  28   6    -0.03  -0.02   0.10     0.07  -0.13  -0.04     0.03   0.01  -0.04
  29   1     0.00  -0.01  -0.04    -0.06   0.01  -0.03     0.06  -0.07   0.17
  30   1    -0.00  -0.01  -0.05    -0.08   0.06  -0.06     0.05  -0.04   0.14
  31   1     0.02  -0.01   0.10     0.01  -0.03   0.02    -0.01   0.03  -0.07
  32   1     0.05   0.01   0.13     0.01  -0.08   0.05     0.01  -0.02   0.01
  33   1     0.06   0.03   0.06    -0.03  -0.07   0.06     0.02  -0.05   0.09
  34   1     0.05   0.04  -0.03    -0.06  -0.02   0.02     0.01  -0.04   0.09
  35   1    -0.03  -0.03  -0.02     0.04  -0.03   0.02    -0.06   0.08  -0.07
  36   1    -0.03  -0.03   0.01     0.02  -0.03  -0.00     0.03   0.06  -0.03
  37   1    -0.04  -0.04   0.00     0.05   0.01   0.01    -0.08  -0.04  -0.06
  38   1    -0.06  -0.06   0.01     0.05   0.01  -0.00    -0.05  -0.05  -0.03
  39   1    -0.05  -0.04   0.05     0.04   0.04  -0.02    -0.03  -0.11   0.01
  40   1    -0.05  -0.04   0.05     0.02   0.01  -0.04     0.01  -0.05   0.05
  41   1    -0.03  -0.00   0.06     0.01  -0.00  -0.04    -0.01  -0.01   0.04
  42   1     0.03  -0.00   0.07     0.05   0.00   0.01     0.04  -0.02  -0.00
  43   1    -0.01  -0.01   0.07     0.05  -0.02   0.01     0.01  -0.02   0.00
  44   1    -0.02  -0.00   0.03     0.07   0.01   0.02     0.02   0.04  -0.04
  45   1     0.03   0.02   0.03     0.06   0.01   0.02     0.03  -0.01  -0.06
  46   1    -0.01   0.03  -0.04     0.05   0.03   0.03     0.01   0.02  -0.01
  47   1    -0.01  -0.01   0.03     0.01  -0.04  -0.03     0.03   0.01  -0.02
  48   1     0.01   0.00   0.03     0.02  -0.05  -0.01     0.02  -0.00  -0.00
                      7                      8                      9
                        a                      a                      a 
 Frequencies --    70.3456                78.5905                90.4407
 Red. masses --     4.0802                 4.2474                 6.0369
 Frc consts  --     0.0000                 0.0000                 0.0000
 IR Inten    --     2.5813                11.5597                 1.0194
 Raman Activ --     0.0000                 0.0000                 0.0000
 Depolar     --     0.0000                 0.0000                 0.0000
 Atom AN      X      Y      Z        X      Y      Z        X      Y      Z
   1   8     0.10  -0.14   0.12    -0.14   0.21  -0.23    -0.16   0.10  -0.43
   2   6    -0.00   0.01  -0.02    -0.06   0.08  -0.12    -0.03  -0.01  -0.25
   3   6    -0.04   0.06  -0.06    -0.03   0.04  -0.06    -0.04   0.01  -0.18
   4   6    -0.09   0.12  -0.20     0.00  -0.00   0.04    -0.04  -0.06   0.03
   5   6    -0.06   0.07  -0.11     0.02  -0.02   0.09    -0.01  -0.04   0.17
   6   6     0.01  -0.01   0.08    -0.00   0.02   0.02     0.00   0.05   0.03
   7   6     0.04  -0.05   0.17    -0.00   0.01   0.03     0.03   0.06   0.09
   8   7     0.06  -0.08   0.22     0.00   0.01   0.03     0.05   0.04   0.10
   9   6     0.02  -0.05   0.13    -0.00   0.00   0.02     0.03   0.01   0.07
  10   6     0.01  -0.03   0.09    -0.01   0.01  -0.01     0.03  -0.02  -0.00
  11   6    -0.05   0.04  -0.07    -0.02   0.01  -0.03    -0.03  -0.02  -0.08
  12   6    -0.09   0.09  -0.18    -0.03   0.00  -0.02    -0.07  -0.02  -0.08
  13   6    -0.07   0.06  -0.11    -0.02  -0.00   0.01    -0.07  -0.00   0.01
  14   6    -0.01  -0.00   0.05    -0.01   0.00   0.03    -0.02   0.01   0.07
  15  16     0.01  -0.04   0.16    -0.01   0.01   0.07    -0.02   0.07   0.19
  16   8     0.02  -0.03   0.12    -0.04   0.06  -0.09    -0.02   0.10  -0.22
  17   7    -0.07   0.13  -0.17    -0.05   0.03  -0.04     0.13  -0.19  -0.06
  18   6    -0.09   0.22  -0.20     0.02  -0.10   0.03     0.03  -0.17  -0.10
  19   6    -0.21  -0.11  -0.14     0.06  -0.25  -0.03    -0.04  -0.02  -0.02
  20   6    -0.06  -0.26   0.05     0.08  -0.25   0.01    -0.12   0.10   0.01
  21   6    -0.01  -0.10   0.04    -0.02  -0.04  -0.06     0.02  -0.02   0.10
  22   7     0.06  -0.04  -0.03     0.02   0.01  -0.28     0.05  -0.01   0.33
  23   6     0.14  -0.06   0.03     0.06  -0.01  -0.00     0.07  -0.01   0.22
  24   6     0.17   0.05  -0.08     0.14  -0.04   0.43     0.04   0.05  -0.07
  25   7     0.12   0.08   0.00     0.07   0.07   0.32     0.06   0.05  -0.11
  26   6     0.04   0.04   0.03     0.02   0.05  -0.06     0.04   0.02   0.07
  27   8    -0.02   0.08   0.10    -0.02   0.09  -0.22     0.01   0.04   0.05
  28   6     0.07  -0.03  -0.06    -0.07   0.07  -0.01     0.13  -0.15  -0.01
  29   1    -0.04   0.05  -0.10     0.00  -0.01   0.02    -0.02  -0.04   0.03
  30   1    -0.02   0.03  -0.05     0.01  -0.02   0.05    -0.00  -0.02   0.10
  31   1     0.01  -0.02   0.05    -0.00   0.00  -0.00     0.02  -0.01  -0.00
  32   1    -0.02   0.02  -0.03    -0.01   0.00  -0.01    -0.01  -0.01  -0.04
  33   1    -0.04   0.04  -0.09    -0.01   0.00  -0.01    -0.03  -0.01  -0.04
  34   1    -0.03   0.03  -0.06    -0.01  -0.00   0.01    -0.03   0.00   0.00
  35   1    -0.08   0.13  -0.09     0.00  -0.03   0.00     0.02  -0.07  -0.03
  36   1     0.06   0.09  -0.06     0.01  -0.03   0.05    -0.02  -0.06  -0.05
  37   1    -0.11  -0.05  -0.08     0.01  -0.08  -0.04     0.02   0.01   0.01
  38   1    -0.06  -0.05  -0.04     0.03  -0.10   0.01    -0.04  -0.01  -0.02
  39   1    -0.03  -0.14   0.02     0.04  -0.11  -0.02    -0.05   0.08   0.03
  40   1     0.03  -0.07   0.06     0.03  -0.07   0.06    -0.07   0.02  -0.04
  41   1    -0.01  -0.01   0.05    -0.02   0.00   0.00     0.01  -0.01   0.02
  42   1     0.08  -0.02   0.02    -0.04   0.05  -0.00     0.07  -0.03   0.08
  43   1     0.02  -0.04   0.03     0.06  -0.05  -0.03    -0.02   0.01   0.10
  44   1     0.04   0.05  -0.04     0.10  -0.10   0.16    -0.04   0.05  -0.03
  45   1     0.07  -0.00  -0.05     0.02   0.04   0.21     0.05  -0.00  -0.05
  46   1     0.03   0.04   0.00     0.03   0.01   0.13     0.00   0.03  -0.07
  47   1     0.06   0.00  -0.04    -0.02   0.02   0.03     0.03  -0.05  -0.04
  48   1     0.04  -0.03  -0.00    -0.03   0.04  -0.02     0.07  -0.06   0.02
                     10                     11                     12
                        a                      a                      a 
 Frequencies --   107.6273               113.4511               148.5644
 Red. masses --     2.7661                 3.9270                 7.9073
 Frc consts  --     0.0000                 0.0000                 0.0000
 IR Inten    --     1.7295                 4.7091                 1.9540
 Raman Activ --     0.0000                 0.0000                 0.0000
 Depolar     --     0.0000                 0.0000                 0.0000
 Atom AN      X      Y      Z        X      Y      Z        X      Y      Z
   1   8     0.17  -0.12   0.07    -0.20   0.11  -0.09     0.21  -0.15   0.26
   2   6     0.08  -0.09   0.00    -0.08   0.10   0.00     0.02   0.02   0.03
   3   6     0.06  -0.05  -0.05    -0.07   0.07   0.05    -0.10   0.14  -0.18
   4   6    -0.03  -0.04  -0.02     0.03   0.06   0.04     0.04   0.04   0.05
   5   6    -0.04   0.06   0.01     0.05  -0.06  -0.00     0.03  -0.00  -0.00
   6   6     0.05   0.10   0.01    -0.07  -0.11  -0.00    -0.11   0.07  -0.24
   7   6     0.08   0.13   0.06    -0.11  -0.16  -0.05    -0.07  -0.05  -0.08
   8   7     0.13   0.10   0.05    -0.16  -0.12  -0.04    -0.05  -0.10   0.06
   9   6     0.09   0.03   0.03    -0.12  -0.04  -0.03     0.00  -0.11   0.17
  10   6     0.12  -0.03  -0.02    -0.15   0.04   0.03    -0.03  -0.06   0.18
  11   6     0.05  -0.08  -0.08    -0.08   0.10   0.09    -0.07   0.08  -0.02
  12   6    -0.03  -0.07  -0.08     0.01   0.08   0.09    -0.07   0.14  -0.16
  13   6    -0.05  -0.01  -0.01     0.04   0.01   0.02    -0.00   0.03  -0.05
  14   6     0.02   0.04   0.04    -0.04  -0.05  -0.04     0.03  -0.10   0.13
  15  16     0.02   0.18   0.14    -0.05  -0.21  -0.14     0.04  -0.22   0.16
  16   8     0.12   0.04  -0.04    -0.15  -0.03   0.05    -0.24   0.23  -0.46
  17   7     0.01  -0.07  -0.00     0.07   0.05   0.02    -0.00   0.03   0.03
  18   6    -0.05  -0.08  -0.02     0.01   0.17  -0.05     0.02  -0.08   0.07
  19   6    -0.09  -0.02   0.02    -0.06   0.15   0.01     0.09  -0.01   0.02
  20   6    -0.11   0.01   0.04     0.02   0.05   0.04     0.04   0.06  -0.01
  21   6    -0.06  -0.03   0.07     0.10  -0.05   0.09     0.04   0.06  -0.01
  22   7    -0.08  -0.05   0.18     0.13  -0.05   0.25     0.04   0.06  -0.02
  23   6    -0.10  -0.01  -0.42     0.11  -0.02  -0.23    -0.02   0.07  -0.05
  24   6     0.01  -0.09   0.19     0.19  -0.06   0.14    -0.04  -0.00   0.01
  25   7    -0.06   0.06  -0.20     0.16   0.06  -0.20    -0.01  -0.04   0.00
  26   6    -0.09   0.01  -0.03     0.11   0.01   0.01     0.05  -0.00  -0.01
  27   8    -0.17   0.04  -0.02     0.09   0.03   0.02     0.13  -0.04  -0.01
  28   6    -0.02  -0.02   0.04     0.16  -0.07   0.02    -0.01   0.05   0.04
  29   1    -0.02  -0.03  -0.01     0.03   0.04   0.01     0.04  -0.01   0.07
  30   1    -0.03   0.03   0.01     0.04  -0.03  -0.01     0.04  -0.03   0.05
  31   1     0.06  -0.01  -0.01    -0.07   0.01   0.01    -0.01  -0.02   0.08
  32   1     0.02  -0.04  -0.04    -0.03   0.04   0.04    -0.03   0.04  -0.02
  33   1    -0.02  -0.03  -0.04     0.02   0.04   0.04    -0.04   0.08  -0.11
  34   1    -0.04   0.00  -0.00     0.04   0.00   0.00     0.01   0.02  -0.04
  35   1    -0.01  -0.03  -0.01    -0.02   0.07  -0.02     0.03  -0.06   0.02
  36   1    -0.02  -0.03  -0.01     0.03   0.06  -0.04    -0.03  -0.03   0.04
  37   1    -0.01  -0.00   0.02    -0.04   0.04   0.02     0.05   0.00   0.00
  38   1    -0.04  -0.00  -0.00    -0.03   0.06  -0.01     0.03  -0.01   0.01
  39   1    -0.04   0.02   0.02    -0.01   0.01   0.03     0.01   0.04  -0.00
  40   1    -0.04   0.00  -0.00     0.03   0.02  -0.01    -0.01   0.01  -0.01
  41   1    -0.01  -0.01   0.03     0.03  -0.02   0.02     0.01   0.02  -0.01
  42   1    -0.21  -0.07  -0.23    -0.09  -0.06  -0.14    -0.02   0.02  -0.02
  43   1     0.10   0.07  -0.26     0.11   0.06  -0.16     0.00   0.03  -0.02
  44   1     0.08  -0.19   0.11     0.09  -0.14   0.08    -0.01  -0.01   0.01
  45   1    -0.03   0.07   0.20     0.04   0.06   0.15    -0.03   0.00   0.01
  46   1    -0.01   0.02  -0.03     0.04   0.02  -0.04    -0.00  -0.02   0.01
  47   1    -0.02  -0.01   0.02     0.07  -0.02  -0.02    -0.01   0.01   0.03
  48   1     0.00   0.01   0.01     0.05  -0.05   0.02    -0.01   0.03   0.00
                     13                     14                     15
                        a                      a                      a 
 Frequencies --   171.7939               182.7717               183.0397
 Red. masses --     4.9003                 4.7075                 5.2611
 Frc consts  --     0.0000                 0.0000                 0.0000
 IR Inten    --     5.9924                 5.2780                 1.6179
 Raman Activ --     0.0000                 0.0000                 0.0000
 Depolar     --     0.0000                 0.0000                 0.0000
 Atom AN      X      Y      Z        X      Y      Z        X      Y      Z
   1   8     0.02  -0.14  -0.05    -0.03   0.03  -0.01    -0.06   0.01  -0.07
   2   6     0.04  -0.07  -0.05    -0.01   0.02   0.01     0.01  -0.03   0.01
   3   6     0.01  -0.05  -0.00     0.01  -0.01   0.04     0.03  -0.06   0.06
   4   6    -0.03  -0.04  -0.03     0.02  -0.01   0.03     0.01  -0.05   0.04
   5   6    -0.02  -0.03   0.01    -0.00   0.01  -0.02    -0.02  -0.00  -0.02
   6   6     0.01  -0.05   0.07    -0.01   0.02  -0.03    -0.01   0.01  -0.03
   7   6    -0.01  -0.02   0.04    -0.01   0.03  -0.05    -0.02   0.04  -0.07
   8   7    -0.02  -0.01   0.03    -0.05   0.08  -0.17    -0.10   0.14  -0.28
   9   6    -0.04   0.01  -0.01    -0.03   0.04  -0.10    -0.06   0.08  -0.16
  10   6    -0.05   0.03  -0.03     0.04  -0.05   0.09     0.06  -0.07   0.15
  11   6    -0.04   0.01   0.01     0.07  -0.08   0.17     0.11  -0.14   0.29
  12   6    -0.02  -0.01   0.06    -0.01   0.02  -0.06    -0.03   0.03  -0.08
  13   6    -0.02  -0.00   0.04    -0.06   0.08  -0.18    -0.11   0.13  -0.29
  14   6    -0.04   0.01  -0.01    -0.02   0.04  -0.09    -0.06   0.08  -0.15
  15  16    -0.07   0.02  -0.04     0.09  -0.10   0.22     0.13  -0.14   0.36
  16   8     0.04  -0.08   0.07     0.00   0.00   0.01     0.03  -0.04   0.03
  17   7     0.08  -0.06  -0.08    -0.05   0.05  -0.03     0.04  -0.05   0.02
  18   6     0.02  -0.05  -0.10     0.03  -0.00   0.02    -0.03   0.03  -0.04
  19   6    -0.04  -0.19  -0.07     0.09  -0.03  -0.04    -0.10   0.03   0.03
  20   6    -0.05  -0.13   0.10     0.06  -0.01  -0.08    -0.04  -0.03   0.07
  21   6     0.01   0.18   0.06    -0.01  -0.02  -0.10     0.00   0.02   0.07
  22   7     0.12   0.31  -0.05    -0.04  -0.04  -0.16     0.04   0.05   0.07
  23   6    -0.13   0.34   0.00     0.02  -0.06   0.23    -0.02   0.07  -0.13
  24   6    -0.26   0.05   0.11     0.01  -0.09   0.20    -0.02   0.06  -0.11
  25   7    -0.09  -0.05  -0.16    -0.01   0.08  -0.47     0.00  -0.05   0.27
  26   6     0.16   0.07  -0.02    -0.03   0.01  -0.03     0.04   0.00   0.01
  27   8     0.47  -0.06   0.11    -0.10   0.03   0.43     0.10  -0.02  -0.24
  28   6     0.05   0.02  -0.01    -0.05   0.03  -0.06     0.03  -0.03   0.03
  29   1    -0.02  -0.01  -0.02     0.01  -0.00   0.02     0.00  -0.02   0.02
  30   1    -0.01  -0.01  -0.00    -0.00   0.01  -0.01    -0.01   0.01  -0.02
  31   1    -0.02   0.01  -0.02     0.02  -0.03   0.06     0.04  -0.04   0.09
  32   1    -0.01   0.00   0.00     0.04  -0.05   0.11     0.07  -0.08   0.18
  33   1     0.00  -0.01   0.03    -0.01   0.01  -0.03    -0.01   0.01  -0.04
  34   1    -0.00  -0.00   0.02    -0.03   0.04  -0.08    -0.05   0.06  -0.13
  35   1    -0.01   0.01  -0.05     0.01  -0.00   0.01    -0.02   0.02  -0.02
  36   1     0.03  -0.01  -0.02     0.01  -0.00   0.02     0.01   0.01  -0.03
  37   1    -0.02  -0.06  -0.05     0.03  -0.01  -0.02    -0.04   0.01   0.02
  38   1    -0.02  -0.09  -0.02     0.04  -0.02  -0.00    -0.04   0.03  -0.00
  39   1    -0.02  -0.08   0.02     0.03   0.00  -0.04    -0.02  -0.03   0.02
  40   1    -0.02  -0.04   0.09     0.01  -0.00  -0.02     0.00  -0.01   0.03
  41   1    -0.04   0.09   0.05     0.00  -0.01  -0.03    -0.01   0.01   0.03
  42   1    -0.08   0.13  -0.00     0.05   0.04   0.11    -0.03  -0.01  -0.06
  43   1    -0.03   0.13  -0.01    -0.03  -0.08   0.11     0.01   0.05  -0.06
  44   1    -0.10  -0.06   0.05    -0.05  -0.16   0.10     0.02   0.09  -0.05
  45   1    -0.11   0.05   0.09     0.05   0.06   0.16    -0.04  -0.03  -0.09
  46   1    -0.02  -0.07  -0.03     0.00   0.01  -0.11    -0.00  -0.01   0.06
  47   1    -0.01  -0.01  -0.03    -0.01   0.01  -0.01     0.00  -0.01  -0.00
  48   1     0.05   0.01   0.01    -0.03   0.01  -0.02     0.02  -0.01   0.02
                     16                     17                     18
                        a                      a                      a 
 Frequencies --   200.0102               222.7457               242.3601
 Red. masses --     3.5379                 5.0926                 4.7628
 Frc consts  --     0.0000                 0.0000                 0.0000
 IR Inten    --     1.2157                 5.0776                 1.5079
 Raman Activ --     0.0000                 0.0000                 0.0000
 Depolar     --     0.0000                 0.0000                 0.0000
 Atom AN      X      Y      Z        X      Y      Z        X      Y      Z
   1   8     0.12  -0.12   0.08     0.25   0.02   0.12    -0.10   0.15   0.13
   2   6     0.04   0.07  -0.05    -0.01   0.03  -0.09    -0.16   0.06   0.08
   3   6    -0.01   0.15  -0.02    -0.11   0.11  -0.36    -0.06  -0.06   0.05
   4   6     0.04   0.15  -0.04    -0.09   0.06  -0.23    -0.05  -0.06   0.02
   5   6     0.10   0.03   0.07     0.07  -0.11   0.21    -0.07  -0.04  -0.03
   6   6     0.05  -0.03   0.14     0.09  -0.12   0.24    -0.04  -0.03  -0.02
   7   6    -0.00  -0.08   0.07     0.07  -0.09   0.22     0.02   0.05  -0.01
   8   7    -0.05  -0.03  -0.03     0.01  -0.02   0.06     0.04   0.06  -0.00
   9   6    -0.08   0.01  -0.10    -0.08   0.08  -0.17     0.07   0.05   0.01
  10   6    -0.09   0.04  -0.03    -0.08   0.08  -0.15     0.11  -0.02  -0.03
  11   6    -0.02   0.01   0.11     0.01  -0.04   0.11     0.07  -0.07  -0.06
  12   6     0.01   0.01   0.10     0.03  -0.07   0.18     0.04  -0.07  -0.06
  13   6    -0.02   0.03  -0.06    -0.06   0.05  -0.09     0.02  -0.01  -0.00
  14   6    -0.07   0.02  -0.11    -0.10   0.10  -0.21     0.07   0.05   0.02
  15  16    -0.05  -0.09   0.01    -0.02  -0.01   0.04     0.12   0.11  -0.00
  16   8     0.00   0.05   0.12    -0.02   0.01  -0.13    -0.06  -0.07   0.03
  17   7     0.01   0.17  -0.19    -0.06  -0.05   0.07    -0.36   0.20  -0.02
  18   6     0.15  -0.12  -0.02    -0.11  -0.07   0.05    -0.23  -0.04   0.11
  19   6     0.27  -0.34  -0.17    -0.08   0.16   0.07    -0.03  -0.12  -0.10
  20   6    -0.07   0.11  -0.07     0.01   0.03  -0.01    -0.22   0.13  -0.17
  21   6     0.02   0.05  -0.00     0.01  -0.04  -0.01    -0.03  -0.05  -0.06
  22   7    -0.07  -0.04   0.29     0.04  -0.01  -0.12     0.12   0.02   0.16
  23   6    -0.06  -0.03   0.01     0.06  -0.02  -0.01     0.13   0.01   0.00
  24   6    -0.04   0.01  -0.01     0.06  -0.03  -0.00     0.11  -0.04   0.00
  25   7    -0.05   0.01   0.08     0.06  -0.02  -0.02     0.12  -0.06  -0.02
  26   6    -0.09  -0.01   0.06     0.05  -0.02  -0.03     0.15  -0.03   0.03
  27   8    -0.17   0.03  -0.09     0.10  -0.04   0.03     0.35  -0.12  -0.03
  28   6     0.11   0.07  -0.10    -0.10   0.03   0.10    -0.16  -0.01   0.01
  29   1     0.01   0.07  -0.04    -0.05   0.03  -0.11    -0.01  -0.02   0.01
  30   1     0.05  -0.00   0.02     0.04  -0.06   0.13    -0.03  -0.01  -0.02
  31   1    -0.04   0.01  -0.00    -0.03   0.03  -0.06     0.06  -0.01  -0.02
  32   1     0.00  -0.00   0.07     0.02  -0.03   0.08     0.02  -0.03  -0.03
  33   1     0.02  -0.00   0.06     0.03  -0.05   0.12     0.00  -0.03  -0.03
  34   1     0.00   0.01  -0.02    -0.02   0.01  -0.03    -0.02  -0.00   0.01
  35   1     0.05  -0.05  -0.02     0.00  -0.06   0.03    -0.04  -0.04   0.04
  36   1     0.04  -0.03   0.07    -0.09  -0.04  -0.00    -0.10  -0.02   0.09
  37   1     0.16  -0.08  -0.18    -0.04   0.05   0.09     0.05  -0.02  -0.11
  38   1     0.09  -0.24  -0.00    -0.03   0.11   0.00     0.03  -0.11   0.01
  39   1    -0.01   0.14  -0.01    -0.01  -0.00   0.01    -0.08   0.15  -0.01
  40   1    -0.14  -0.00  -0.06     0.03   0.02  -0.02    -0.15   0.02  -0.14
  41   1     0.03  -0.01  -0.00    -0.01  -0.01  -0.01    -0.03  -0.01  -0.04
  42   1    -0.03  -0.06  -0.02     0.02   0.01   0.01     0.03  -0.02  -0.01
  43   1    -0.00   0.03  -0.02     0.01  -0.02   0.01     0.04   0.03  -0.01
  44   1    -0.00   0.02  -0.01     0.02  -0.01   0.00     0.03  -0.02   0.00
  45   1    -0.01  -0.00  -0.01     0.02  -0.01   0.00     0.03  -0.01   0.01
  46   1    -0.02   0.02  -0.00     0.02  -0.00   0.00     0.03  -0.01  -0.00
  47   1     0.05   0.03  -0.05    -0.04   0.01   0.08     0.00   0.01   0.01
  48   1     0.05   0.00  -0.02    -0.05   0.05   0.00    -0.09  -0.02  -0.01
                     19                     20                     21
                        a                      a                      a 
 Frequencies --   253.5357               287.1039               319.2922
 Red. masses --     6.9180                 4.1135                 4.9110
 Frc consts  --     0.0000                 0.0000                 0.0000
 IR Inten    --     2.3235                 2.8463                 4.1506
 Raman Activ --     0.0000                 0.0000                 0.0000
 Depolar     --     0.0000                 0.0000                 0.0000
 Atom AN      X      Y      Z        X      Y      Z        X      Y      Z
   1   8    -0.33  -0.28   0.09    -0.05  -0.15  -0.08     0.13   0.20  -0.01
   2   6    -0.20  -0.01   0.05     0.09  -0.01  -0.02    -0.00  -0.05  -0.00
   3   6    -0.25   0.19  -0.00     0.04   0.17   0.18     0.03  -0.14  -0.08
   4   6    -0.14   0.17   0.02     0.05   0.22   0.12    -0.22  -0.13   0.02
   5   6    -0.07   0.04   0.12     0.04   0.23   0.04    -0.23   0.12   0.15
   6   6    -0.06   0.04   0.09     0.04   0.19   0.08     0.03   0.24   0.10
   7   6     0.03  -0.00   0.07    -0.02   0.00  -0.01     0.00   0.07   0.03
   8   7     0.09  -0.04  -0.00     0.04  -0.08  -0.07     0.13  -0.12  -0.10
   9   6     0.10   0.01  -0.08     0.00  -0.13  -0.05     0.02  -0.25  -0.12
  10   6     0.14  -0.04  -0.13    -0.04  -0.03   0.02    -0.07  -0.06  -0.00
  11   6     0.17  -0.08  -0.07     0.03   0.08   0.02     0.08   0.15   0.04
  12   6     0.19  -0.09  -0.05     0.08   0.09  -0.01     0.16   0.16   0.01
  13   6     0.14  -0.01  -0.10     0.11  -0.02  -0.03     0.21  -0.02  -0.08
  14   6     0.14   0.02  -0.11     0.02  -0.13  -0.04    -0.00  -0.25  -0.11
  15  16     0.26   0.02  -0.07    -0.07  -0.11  -0.03    -0.23  -0.10   0.04
  16   8    -0.25   0.19   0.03     0.04   0.22   0.22     0.19   0.11  -0.03
  17   7     0.01  -0.10   0.08     0.12  -0.08  -0.01    -0.15  -0.02   0.04
  18   6     0.06   0.06   0.05    -0.15  -0.30  -0.07     0.00   0.16   0.05
  19   6     0.04  -0.03   0.06    -0.24   0.01   0.02     0.07  -0.02  -0.02
  20   6     0.06  -0.07   0.04    -0.25   0.01  -0.08     0.06  -0.01  -0.01
  21   6    -0.03  -0.00  -0.01    -0.03  -0.04  -0.00    -0.04  -0.01  -0.04
  22   7    -0.01   0.04  -0.01     0.01  -0.01  -0.17     0.01   0.01   0.10
  23   6    -0.06   0.06  -0.02     0.07  -0.05  -0.01    -0.01   0.03   0.01
  24   6    -0.07   0.04   0.01     0.08  -0.04  -0.01    -0.02   0.01   0.00
  25   7    -0.05   0.02   0.01     0.05  -0.02  -0.01    -0.01   0.00  -0.00
  26   6    -0.02   0.04   0.00     0.03  -0.02  -0.04     0.01   0.01   0.02
  27   8    -0.05   0.05   0.00     0.09  -0.06   0.01     0.04  -0.00  -0.01
  28   6     0.04  -0.20  -0.05    -0.04   0.11   0.02    -0.07  -0.11  -0.01
  29   1    -0.02   0.08  -0.00     0.02   0.08   0.03    -0.11  -0.09   0.00
  30   1    -0.01   0.00   0.06     0.00   0.08  -0.01    -0.13   0.07   0.09
  31   1     0.05  -0.01  -0.05    -0.05  -0.01   0.02    -0.09  -0.02   0.03
  32   1     0.05  -0.02  -0.01    -0.00   0.04   0.01     0.01   0.08   0.03
  33   1     0.06  -0.04   0.01     0.03   0.04  -0.00     0.06   0.07   0.01
  34   1     0.03  -0.00  -0.03     0.07  -0.01  -0.02     0.13  -0.01  -0.05
  35   1    -0.01   0.05   0.02     0.02  -0.18  -0.03    -0.04   0.11   0.04
  36   1     0.06   0.03   0.00    -0.16  -0.12  -0.02     0.08   0.07   0.00
  37   1    -0.00  -0.01   0.01    -0.06   0.01   0.09     0.01  -0.01  -0.06
  38   1     0.02  -0.00   0.02    -0.09   0.07  -0.02     0.04  -0.04   0.01
  39   1     0.03  -0.05  -0.01    -0.10   0.06   0.02     0.03  -0.02  -0.02
  40   1     0.04  -0.02   0.04    -0.10  -0.00  -0.09     0.02  -0.00   0.02
  41   1    -0.02   0.01  -0.01    -0.00  -0.00   0.04    -0.02  -0.00  -0.04
  42   1    -0.03   0.02  -0.01     0.04   0.01   0.01    -0.01  -0.01  -0.01
  43   1    -0.02   0.02  -0.01     0.01  -0.04   0.01     0.00   0.02  -0.01
  44   1    -0.02   0.01   0.01     0.02  -0.01  -0.00    -0.01   0.00   0.00
  45   1    -0.03   0.01   0.01     0.03  -0.01  -0.00    -0.01   0.00   0.00
  46   1    -0.01  -0.00   0.00     0.02  -0.00   0.02    -0.01   0.00  -0.01
  47   1     0.02  -0.07  -0.10    -0.04   0.03   0.07    -0.00  -0.03  -0.03
  48   1     0.03  -0.13   0.02    -0.03   0.09  -0.03    -0.02  -0.06   0.01
                     22                     23                     24
                        a                      a                      a 
 Frequencies --   326.1231               345.0875               383.8434
 Red. masses --     5.3907                 3.0180                 2.3580
 Frc consts  --     0.0000                 0.0000                 0.0000
 IR Inten    --     0.8064                 4.4828                 1.8404
 Raman Activ --     0.0000                 0.0000                 0.0000
 Depolar     --     0.0000                 0.0000                 0.0000
 Atom AN      X      Y      Z        X      Y      Z        X      Y      Z
   1   8    -0.06   0.04  -0.03     0.11   0.25   0.08    -0.03  -0.04   0.03
   2   6     0.04  -0.03   0.07     0.03   0.04   0.10    -0.05   0.04  -0.03
   3   6     0.09  -0.08   0.16     0.06   0.09  -0.02     0.04   0.02   0.03
   4   6     0.09  -0.08   0.16     0.18   0.11  -0.06     0.13   0.03   0.00
   5   6    -0.07   0.11  -0.25     0.21   0.02  -0.03     0.11   0.02  -0.07
   6   6    -0.07   0.11  -0.25     0.09  -0.02  -0.01     0.05  -0.01  -0.04
   7   6     0.07  -0.07   0.16     0.04  -0.01  -0.03     0.04   0.02  -0.01
   8   7     0.15  -0.18   0.40     0.00   0.03  -0.02     0.06   0.01  -0.01
   9   6     0.00  -0.01   0.02    -0.01   0.02   0.00     0.02  -0.04  -0.02
  10   6    -0.11   0.13  -0.27    -0.02   0.03   0.04    -0.01   0.01  -0.00
  11   6     0.00  -0.01   0.04    -0.05   0.02   0.02     0.01   0.04   0.02
  12   6     0.07  -0.10   0.25    -0.08   0.03   0.02    -0.00   0.04   0.02
  13   6    -0.09   0.10  -0.22    -0.06   0.00   0.04     0.00   0.01  -0.01
  14   6    -0.09   0.09  -0.20    -0.04   0.01   0.03    -0.03  -0.04  -0.01
  15  16     0.02  -0.06   0.13    -0.08   0.01   0.02    -0.13   0.06   0.07
  16   8    -0.03   0.07  -0.19     0.07   0.05  -0.02     0.04  -0.01   0.03
  17   7     0.02   0.01   0.02     0.06  -0.13   0.25    -0.28   0.22  -0.21
  18   6    -0.00   0.02  -0.00    -0.05   0.05   0.13    -0.08  -0.27   0.05
  19   6    -0.02  -0.02  -0.01    -0.09  -0.14   0.10    -0.00   0.14   0.06
  20   6    -0.03  -0.00  -0.02    -0.21  -0.05  -0.14     0.23  -0.20  -0.01
  21   6    -0.00   0.00  -0.01    -0.08  -0.06  -0.10    -0.03  -0.07  -0.11
  22   7    -0.00   0.00  -0.01    -0.00   0.03  -0.15     0.05   0.01   0.25
  23   6     0.00  -0.00   0.00    -0.03   0.04  -0.03    -0.05   0.07   0.02
  24   6     0.00  -0.00  -0.00    -0.05   0.01   0.00    -0.07   0.05  -0.00
  25   7    -0.00  -0.00  -0.00    -0.04   0.00  -0.00    -0.01   0.02  -0.00
  26   6    -0.00  -0.00  -0.00    -0.01   0.02  -0.04     0.03   0.04   0.06
  27   8     0.00  -0.00  -0.00     0.00   0.02   0.01     0.01   0.06  -0.01
  28   6     0.01   0.00  -0.02     0.10  -0.42  -0.16     0.01  -0.14  -0.17
  29   1     0.05  -0.05   0.11     0.07   0.05  -0.02     0.05   0.02   0.00
  30   1    -0.04   0.05  -0.12     0.09  -0.01  -0.01     0.04   0.00  -0.04
  31   1    -0.06   0.06  -0.14    -0.01   0.01   0.02    -0.02   0.00   0.00
  32   1     0.01  -0.01   0.03    -0.01  -0.00   0.00     0.00   0.01   0.00
  33   1     0.06  -0.07   0.17    -0.02   0.01   0.00     0.00   0.01   0.01
  34   1    -0.04   0.05  -0.11    -0.01  -0.00   0.01     0.02   0.00  -0.01
  35   1    -0.01   0.01  -0.01    -0.06   0.07   0.00     0.09  -0.23   0.05
  36   1     0.01   0.01  -0.00     0.06   0.04   0.02    -0.21  -0.13   0.07
  37   1    -0.00  -0.01  -0.01    -0.03  -0.04   0.01    -0.05   0.03   0.17
  38   1     0.00  -0.01   0.00     0.01  -0.04   0.05    -0.02   0.18  -0.03
  39   1    -0.01   0.01  -0.00    -0.05   0.08  -0.03     0.09  -0.22  -0.07
  40   1    -0.02  -0.00  -0.01    -0.12  -0.03  -0.10     0.20  -0.03   0.12
  41   1     0.00   0.00   0.00    -0.05   0.00  -0.02    -0.03  -0.01  -0.05
  42   1     0.00  -0.00   0.00    -0.01   0.04   0.00    -0.05  -0.01  -0.02
  43   1     0.00  -0.00   0.00    -0.01  -0.01  -0.00    -0.01   0.06  -0.01
  44   1     0.00  -0.00  -0.00    -0.01  -0.00   0.00    -0.03   0.02  -0.00
  45   1     0.00  -0.00  -0.00    -0.02   0.01   0.01    -0.02   0.01  -0.01
  46   1     0.00  -0.00   0.00    -0.00  -0.01   0.03    -0.01  -0.00  -0.04
  47   1     0.00  -0.00  -0.02     0.06  -0.14  -0.26     0.08  -0.03  -0.15
  48   1     0.00  -0.01  -0.00     0.04  -0.31   0.04     0.01  -0.15  -0.00
                     25                     26                     27
                        a                      a                      a 
 Frequencies --   399.8177               410.8257               414.7596
 Red. masses --     7.6509                 3.5622                 3.1380
 Frc consts  --     0.0000                 0.0000                 0.0000
 IR Inten    --     3.5450                 0.6929                 6.3295
 Raman Activ --     0.0000                 0.0000                 0.0000
 Depolar     --     0.0000                 0.0000                 0.0000
 Atom AN      X      Y      Z        X      Y      Z        X      Y      Z
   1   8    -0.29  -0.26   0.00     0.01  -0.01   0.01    -0.06  -0.09  -0.08
   2   6    -0.09   0.01   0.03    -0.01   0.01  -0.02     0.01  -0.10  -0.00
   3   6    -0.02   0.01  -0.03    -0.02   0.02  -0.04     0.03   0.09   0.01
   4   6     0.18   0.01  -0.12    -0.02   0.02  -0.05     0.15   0.11  -0.03
   5   6     0.21  -0.15  -0.11     0.03  -0.05   0.08     0.18   0.08  -0.01
   6   6     0.05  -0.17  -0.08     0.01  -0.03   0.03     0.09   0.05  -0.00
   7   6     0.12   0.08   0.01    -0.05   0.07  -0.14     0.04  -0.03  -0.03
   8   7     0.18   0.04  -0.06    -0.03   0.04  -0.10    -0.00   0.01  -0.00
   9   6     0.06  -0.14  -0.10     0.09  -0.12   0.25     0.00   0.03   0.03
  10   6     0.03  -0.04  -0.00    -0.11   0.13  -0.31    -0.02   0.05   0.01
  11   6     0.12   0.12   0.00     0.08  -0.09   0.20    -0.05  -0.00   0.03
  12   6     0.08   0.12   0.02     0.03  -0.02   0.06    -0.08  -0.00   0.03
  13   6     0.10   0.01  -0.00    -0.09   0.13  -0.29    -0.08   0.00   0.01
  14   6    -0.07  -0.14  -0.06     0.18  -0.23   0.49    -0.02   0.02   0.05
  15  16    -0.43   0.27   0.28    -0.05   0.05  -0.07     0.03  -0.07  -0.05
  16   8    -0.05  -0.13  -0.11     0.02  -0.04   0.07     0.07   0.13   0.01
  17   7     0.01  -0.01   0.04    -0.00   0.00  -0.00    -0.00  -0.30   0.19
  18   6     0.02   0.10   0.02     0.00  -0.00   0.00    -0.10   0.13  -0.00
  19   6     0.03  -0.02   0.01     0.00   0.00   0.01     0.02  -0.02  -0.16
  20   6    -0.04   0.08   0.05    -0.01   0.01   0.01     0.11  -0.13  -0.18
  21   6    -0.00   0.02   0.06     0.00   0.00   0.01    -0.06  -0.03  -0.23
  22   7    -0.02  -0.00  -0.07    -0.00   0.00  -0.02     0.01  -0.01   0.35
  23   6     0.03  -0.03  -0.01     0.00  -0.00  -0.00    -0.00   0.02   0.06
  24   6     0.04  -0.02   0.00     0.00  -0.00   0.00    -0.01   0.03   0.00
  25   7     0.01   0.00  -0.00    -0.00  -0.00   0.00     0.01   0.02  -0.02
  26   6    -0.01  -0.01  -0.02    -0.00  -0.00  -0.01     0.01   0.02   0.09
  27   8     0.02  -0.03   0.00    -0.00  -0.00   0.00     0.08  -0.01  -0.02
  28   6    -0.04   0.07   0.08     0.01  -0.00   0.01    -0.34   0.02   0.05
  29   1     0.08   0.04  -0.04    -0.01   0.02  -0.04     0.06   0.06  -0.01
  30   1     0.10  -0.07  -0.04     0.02  -0.02   0.03     0.06   0.02  -0.00
  31   1    -0.04  -0.02   0.03    -0.10   0.12  -0.28    -0.00   0.02  -0.01
  32   1     0.03   0.05   0.01     0.02  -0.02   0.06    -0.01  -0.01   0.00
  33   1     0.02   0.03   0.00    -0.01   0.02  -0.04    -0.02   0.00   0.01
  34   1     0.09  -0.00  -0.01    -0.09   0.12  -0.28    -0.03   0.00  -0.00
  35   1    -0.03   0.07   0.00     0.00  -0.00   0.00    -0.08   0.12   0.04
  36   1     0.06   0.04  -0.00     0.00  -0.00   0.00     0.06   0.06  -0.07
  37   1     0.03  -0.00  -0.04     0.00   0.00   0.00    -0.03  -0.02  -0.11
  38   1     0.01  -0.05   0.02    -0.00  -0.00   0.00     0.07  -0.04  -0.01
  39   1    -0.02   0.07   0.03    -0.00   0.01   0.01     0.05  -0.14  -0.10
  40   1    -0.04   0.02  -0.02    -0.01   0.00  -0.00     0.10  -0.03   0.05
  41   1     0.00   0.00   0.02     0.00   0.00   0.01    -0.03  -0.01  -0.11
  42   1     0.02  -0.00   0.01     0.00   0.00   0.00    -0.02  -0.04  -0.01
  43   1     0.00  -0.02   0.01    -0.00  -0.00   0.00     0.01   0.05  -0.01
  44   1     0.01  -0.01   0.00     0.00  -0.00   0.00    -0.01   0.01  -0.00
  45   1     0.01  -0.00   0.00     0.00  -0.00   0.00     0.00   0.01  -0.01
  46   1     0.01   0.01   0.02     0.00  -0.00   0.00    -0.01   0.02  -0.05
  47   1    -0.03   0.02   0.06     0.00  -0.00  -0.00    -0.17   0.01   0.19
  48   1    -0.01   0.05   0.01     0.01  -0.00   0.01    -0.18   0.14  -0.08
                     28                     29                     30
                        a                      a                      a 
 Frequencies --   441.0227               452.8469               470.4445
 Red. masses --     4.5367                 1.4425                 2.9519
 Frc consts  --     0.0000                 0.0000                 0.0000
 IR Inten    --    26.5826                94.4141                21.7145
 Raman Activ --     0.0000                 0.0000                 0.0000
 Depolar     --     0.0000                 0.0000                 0.0000
 Atom AN      X      Y      Z        X      Y      Z        X      Y      Z
   1   8    -0.17  -0.27  -0.13     0.09   0.12   0.04    -0.00   0.01  -0.01
   2   6    -0.03  -0.06  -0.08     0.03   0.03   0.02    -0.04  -0.01  -0.03
   3   6     0.09  -0.03  -0.06    -0.04   0.02   0.02     0.01   0.02   0.01
   4   6     0.07  -0.01  -0.07    -0.03   0.01   0.03     0.06   0.02   0.03
   5   6     0.09   0.11   0.03    -0.04  -0.05  -0.01     0.04   0.05  -0.03
   6   6     0.15   0.14   0.01    -0.07  -0.07  -0.00     0.03   0.03  -0.01
   7   6     0.06  -0.03  -0.04    -0.03   0.01   0.02     0.02   0.00  -0.02
   8   7     0.02  -0.00  -0.01    -0.02   0.00   0.01     0.02  -0.00  -0.00
   9   6     0.00   0.04   0.02    -0.01  -0.01  -0.00     0.01   0.00   0.00
  10   6    -0.04   0.08   0.05     0.01  -0.04  -0.02     0.00   0.02   0.01
  11   6    -0.11   0.00   0.04     0.05  -0.01  -0.02    -0.01   0.01   0.00
  12   6    -0.15  -0.00   0.05     0.07  -0.00  -0.03    -0.03   0.00   0.02
  13   6    -0.12  -0.03   0.03     0.05   0.01  -0.01    -0.02  -0.00   0.00
  14   6    -0.03   0.04   0.03     0.02  -0.01  -0.01    -0.01   0.01  -0.00
  15  16     0.11  -0.18  -0.12    -0.04   0.08   0.05     0.01  -0.03  -0.01
  16   8     0.23   0.13  -0.06    -0.11  -0.05   0.03     0.04   0.03   0.05
  17   7    -0.28   0.10  -0.15     0.13  -0.03   0.04    -0.13  -0.09   0.06
  18   6     0.09   0.09   0.10     0.03  -0.03  -0.04    -0.30  -0.02  -0.07
  19   6     0.08   0.04   0.16    -0.02  -0.02  -0.00     0.06   0.10  -0.40
  20   6    -0.01   0.14   0.22     0.01  -0.08  -0.07     0.15   0.15   0.09
  21   6    -0.17  -0.01   0.14     0.01  -0.03  -0.08     0.19   0.01   0.17
  22   7    -0.10   0.01  -0.07    -0.01  -0.03   0.16     0.10  -0.01  -0.16
  23   6     0.07  -0.08  -0.01     0.04  -0.06   0.05    -0.03   0.04  -0.02
  24   6     0.10  -0.04  -0.02     0.02  -0.05  -0.06    -0.08  -0.03  -0.00
  25   7    -0.12   0.08  -0.07    -0.27   0.12  -0.20    -0.02  -0.05  -0.02
  26   6    -0.06   0.03  -0.04    -0.01   0.07  -0.03     0.08  -0.01  -0.07
  27   8     0.19  -0.10  -0.02     0.09   0.05  -0.03    -0.19   0.13   0.02
  28   6    -0.10  -0.07   0.02     0.02   0.06  -0.07     0.07  -0.23   0.33
  29   1     0.01  -0.01  -0.03    -0.00   0.01   0.01     0.03   0.01   0.02
  30   1    -0.00   0.04   0.03     0.00  -0.02  -0.01     0.01   0.02  -0.02
  31   1    -0.01   0.02   0.01     0.00  -0.01  -0.01    -0.00   0.00   0.00
  32   1    -0.02  -0.02  -0.00     0.01   0.01   0.00    -0.00  -0.00  -0.00
  33   1    -0.04   0.00   0.02     0.02  -0.00  -0.01    -0.01   0.00   0.01
  34   1    -0.04  -0.01   0.01     0.02   0.00  -0.00    -0.01  -0.00   0.00
  35   1    -0.00   0.08   0.06     0.01  -0.02  -0.03    -0.00  -0.10   0.06
  36   1     0.09   0.04   0.04     0.00  -0.01  -0.01    -0.20  -0.05  -0.05
  37   1     0.05   0.02   0.04    -0.02  -0.01   0.02     0.07   0.03  -0.29
  38   1    -0.02  -0.01   0.04    -0.00   0.03  -0.01     0.06  -0.15  -0.04
  39   1     0.02   0.08   0.05     0.01  -0.05  -0.04    -0.03  -0.03   0.08
  40   1    -0.02   0.04   0.03     0.02  -0.02   0.00     0.09   0.05   0.04
  41   1    -0.06  -0.00   0.02     0.02  -0.01  -0.01     0.03  -0.00  -0.02
  42   1     0.04  -0.02   0.01     0.02  -0.03   0.01    -0.00   0.04   0.01
  43   1     0.02  -0.06   0.01     0.00  -0.00   0.02    -0.02   0.01   0.01
  44   1     0.04  -0.02  -0.01     0.00  -0.01  -0.02    -0.03  -0.01  -0.00
  45   1     0.05  -0.00   0.00     0.04  -0.01  -0.02    -0.04  -0.01   0.00
  46   1     0.06  -0.00   0.29     0.17  -0.13   0.78     0.05  -0.10   0.19
  47   1     0.01  -0.02  -0.07    -0.01   0.02   0.02     0.04  -0.07   0.04
  48   1     0.02  -0.07   0.05    -0.01   0.04  -0.04     0.04  -0.10   0.12
                     31                     32                     33
                        a                      a                      a 
 Frequencies --   491.5104               495.2076               500.8637
 Red. masses --     7.7849                 4.2482                 5.1564
 Frc consts  --     0.0000                 0.0000                 0.0000
 IR Inten    --     4.2690                26.1249                 0.6750
 Raman Activ --     0.0000                 0.0000                 0.0000
 Depolar     --     0.0000                 0.0000                 0.0000
 Atom AN      X      Y      Z        X      Y      Z        X      Y      Z
   1   8    -0.10  -0.04   0.02     0.25   0.12  -0.04    -0.01  -0.02   0.00
   2   6    -0.01   0.02   0.05     0.03  -0.03  -0.13    -0.01   0.01  -0.01
   3   6     0.02  -0.04  -0.01    -0.06   0.11   0.03    -0.01   0.01  -0.04
   4   6    -0.00  -0.02  -0.05     0.06   0.08   0.12    -0.04   0.04  -0.11
   5   6     0.01  -0.01   0.01     0.03  -0.02  -0.06     0.06  -0.07   0.17
   6   6     0.03   0.01   0.01    -0.10  -0.08  -0.03    -0.01   0.02  -0.04
   7   6     0.04   0.06   0.04    -0.08   0.02  -0.03    -0.16   0.20  -0.44
   8   7     0.09  -0.00  -0.04    -0.04  -0.01   0.03     0.02  -0.01   0.02
   9   6    -0.09  -0.17  -0.06    -0.06  -0.07   0.03     0.10  -0.13   0.28
  10   6    -0.30   0.05   0.12    -0.10  -0.07   0.02     0.05  -0.06   0.15
  11   6    -0.38  -0.01   0.15    -0.09  -0.02  -0.01    -0.11   0.13  -0.29
  12   6    -0.14  -0.03   0.02     0.08  -0.05  -0.01     0.10  -0.14   0.31
  13   6     0.03  -0.34  -0.15     0.09  -0.07  -0.09    -0.07   0.08  -0.19
  14   6     0.13  -0.19  -0.11     0.06  -0.05  -0.08    -0.08   0.10  -0.23
  15  16     0.40   0.39   0.02     0.10   0.25   0.10     0.06  -0.07   0.15
  16   8     0.04  -0.01  -0.07    -0.14  -0.04   0.15     0.06  -0.07   0.14
  17   7     0.02   0.05   0.02    -0.02  -0.14  -0.03    -0.01   0.01  -0.00
  18   6    -0.01   0.01   0.03     0.01  -0.03  -0.08     0.01   0.00   0.01
  19   6    -0.02  -0.02   0.03     0.06   0.06  -0.10    -0.01  -0.01   0.02
  20   6    -0.02  -0.04  -0.07     0.07   0.12   0.19    -0.01  -0.02  -0.02
  21   6     0.07  -0.04  -0.02    -0.21   0.13   0.05     0.02  -0.03  -0.01
  22   7     0.07  -0.01   0.01    -0.22   0.04  -0.03     0.03  -0.01   0.00
  23   6    -0.02   0.03   0.01     0.07  -0.10  -0.02    -0.01   0.01   0.00
  24   6    -0.05   0.00  -0.00     0.16  -0.00   0.00    -0.02   0.00   0.00
  25   7     0.02  -0.03  -0.01    -0.05   0.10   0.02     0.01  -0.01  -0.00
  26   6     0.06  -0.00  -0.01    -0.20   0.00   0.02     0.03   0.00  -0.00
  27   8    -0.08   0.08   0.01     0.24  -0.23  -0.02    -0.03   0.03   0.00
  28   6     0.04   0.04   0.01    -0.11  -0.11  -0.03     0.01   0.01   0.01
  29   1    -0.01  -0.01  -0.02     0.05   0.04   0.05    -0.03   0.03  -0.07
  30   1    -0.00  -0.00   0.01     0.04  -0.02  -0.06     0.03  -0.03   0.08
  31   1    -0.12   0.01   0.05    -0.03  -0.02   0.01     0.01  -0.01   0.03
  32   1    -0.11   0.00   0.05    -0.04   0.02  -0.00    -0.07   0.09  -0.19
  33   1     0.02   0.08   0.02     0.05   0.01   0.01     0.06  -0.08   0.19
  34   1     0.02  -0.10  -0.05     0.02  -0.02  -0.03    -0.03   0.03  -0.08
  35   1    -0.01   0.00  -0.01     0.02  -0.02   0.02    -0.00   0.01   0.00
  36   1    -0.00   0.00   0.02    -0.02  -0.02  -0.05     0.01   0.00   0.01
  37   1    -0.02  -0.01   0.03     0.06   0.03  -0.10    -0.01  -0.00   0.02
  38   1     0.01   0.02   0.01    -0.01  -0.08  -0.02    -0.00   0.01   0.00
  39   1    -0.01   0.02  -0.00     0.04  -0.09   0.00    -0.00   0.02   0.00
  40   1    -0.03  -0.02  -0.05     0.09   0.04   0.16    -0.01  -0.01  -0.02
  41   1     0.02  -0.01   0.01    -0.06   0.03  -0.03     0.00  -0.00   0.00
  42   1    -0.02   0.01   0.00     0.05  -0.05  -0.00    -0.01   0.01   0.00
  43   1    -0.01   0.02   0.00     0.03  -0.07   0.00    -0.00   0.01  -0.00
  44   1    -0.02   0.00  -0.00     0.07  -0.01   0.01    -0.01   0.00  -0.00
  45   1    -0.02  -0.00  -0.00     0.06   0.01   0.01    -0.01  -0.00  -0.00
  46   1     0.02  -0.04   0.04    -0.05   0.14  -0.12     0.01  -0.02   0.01
  47   1     0.02   0.02   0.04    -0.05  -0.06  -0.11     0.00   0.01   0.02
  48   1    -0.01   0.03  -0.02     0.04  -0.09   0.05    -0.01   0.01  -0.01
                     34                     35                     36
                        a                      a                      a 
 Frequencies --   526.6982               563.7879               565.8575
 Red. masses --     3.5871                 6.0773                 8.0495
 Frc consts  --     0.0000                 0.0000                 0.0000
 IR Inten    --     1.1180                 0.6346                11.2492
 Raman Activ --     0.0000                 0.0000                 0.0000
 Depolar     --     0.0000                 0.0000                 0.0000
 Atom AN      X      Y      Z        X      Y      Z        X      Y      Z
   1   8     0.26  -0.05  -0.13    -0.04  -0.01  -0.07    -0.08  -0.02  -0.10
   2   6    -0.03  -0.03  -0.31     0.11  -0.09   0.09     0.15  -0.12   0.15
   3   6    -0.07   0.13  -0.07     0.09  -0.05   0.08     0.15  -0.09   0.12
   4   6     0.12   0.02   0.21    -0.02   0.09  -0.21     0.05   0.04  -0.14
   5   6     0.02   0.05  -0.13     0.12  -0.04   0.20     0.07   0.07   0.00
   6   6    -0.06  -0.04  -0.03    -0.06   0.07  -0.11     0.02   0.01   0.10
   7   6    -0.06  -0.04   0.01    -0.21   0.12  -0.34    -0.03  -0.17   0.29
   8   7    -0.08  -0.00   0.04    -0.04  -0.11   0.42    -0.34   0.18  -0.12
   9   6    -0.07   0.01   0.01    -0.19   0.08  -0.07    -0.20  -0.00   0.18
  10   6    -0.03  -0.07  -0.03    -0.16  -0.07  -0.21    -0.11  -0.29   0.06
  11   6     0.02  -0.04  -0.01     0.06  -0.16   0.17    -0.07  -0.05  -0.17
  12   6     0.10  -0.02  -0.06     0.10   0.04  -0.30     0.33  -0.15  -0.00
  13   6     0.07   0.03  -0.01     0.16   0.02   0.15     0.13   0.18  -0.10
  14   6     0.03   0.01  -0.01     0.01   0.06  -0.06     0.06   0.03   0.05
  15  16    -0.02   0.11   0.05     0.01   0.03   0.10    -0.03   0.11  -0.01
  16   8    -0.06  -0.03   0.19     0.07  -0.00   0.01     0.04   0.10  -0.23
  17   7    -0.24  -0.06  -0.16    -0.05   0.03  -0.02    -0.06   0.06  -0.02
  18   6     0.14   0.05   0.02    -0.02   0.01   0.02    -0.04   0.02   0.03
  19   6     0.06  -0.02   0.16     0.00   0.01  -0.00    -0.00   0.01  -0.00
  20   6    -0.01   0.01  -0.00     0.00   0.01   0.01     0.00   0.01   0.01
  21   6    -0.01  -0.25   0.05    -0.00  -0.01   0.01     0.00   0.01   0.00
  22   7     0.16  -0.03  -0.04     0.01   0.00  -0.00     0.02   0.01   0.00
  23   6    -0.05   0.08   0.00     0.00   0.01   0.00     0.01   0.01   0.00
  24   6    -0.13   0.01   0.01    -0.01  -0.01  -0.00    -0.01  -0.01  -0.00
  25   7     0.05  -0.07   0.01     0.01  -0.02  -0.00     0.01  -0.03  -0.00
  26   6     0.15   0.03  -0.03     0.02  -0.00  -0.00     0.02  -0.01  -0.00
  27   8    -0.09   0.17   0.02    -0.02   0.01   0.00    -0.03   0.01   0.00
  28   6    -0.13  -0.14   0.13    -0.01  -0.01   0.01    -0.01  -0.00   0.00
  29   1     0.07   0.01   0.10    -0.03   0.04  -0.12    -0.01   0.01  -0.06
  30   1     0.02   0.02  -0.10     0.06  -0.04   0.11     0.03   0.01   0.01
  31   1     0.00  -0.02  -0.01    -0.01  -0.04  -0.03    -0.00  -0.07  -0.02
  32   1    -0.00   0.01   0.02     0.03  -0.04   0.17    -0.07   0.09  -0.06
  33   1     0.03  -0.01  -0.02     0.02   0.02  -0.11     0.09  -0.05   0.01
  34   1     0.01   0.01   0.00     0.05  -0.02   0.11    -0.01   0.07  -0.06
  35   1    -0.04   0.15   0.03    -0.00   0.00   0.01    -0.01   0.00   0.01
  36   1     0.19   0.06  -0.00    -0.01   0.00   0.00    -0.01   0.00   0.01
  37   1    -0.00  -0.00   0.14     0.00   0.00  -0.01     0.00   0.00  -0.02
  38   1    -0.02   0.08   0.00     0.00  -0.01   0.00     0.01  -0.01   0.01
  39   1    -0.00   0.15   0.03    -0.00   0.00   0.00    -0.00  -0.00   0.00
  40   1    -0.08  -0.01  -0.14     0.00   0.00   0.00     0.00   0.00   0.01
  41   1    -0.05  -0.05  -0.02    -0.00  -0.00  -0.00    -0.00   0.00  -0.00
  42   1    -0.04   0.04  -0.00    -0.00   0.00  -0.00     0.00   0.00   0.00
  43   1    -0.02   0.05  -0.01     0.00   0.00  -0.00     0.00   0.00  -0.00
  44   1    -0.05   0.01  -0.00    -0.00  -0.00  -0.00    -0.01  -0.00  -0.00
  45   1    -0.05  -0.01  -0.01    -0.01  -0.00  -0.00    -0.01  -0.01  -0.00
  46   1     0.01  -0.09   0.02     0.00  -0.01   0.00     0.01  -0.02   0.01
  47   1    -0.02  -0.01   0.15     0.01  -0.00  -0.01     0.01   0.00  -0.02
  48   1    -0.05   0.06  -0.01    -0.00  -0.01   0.00    -0.01  -0.02   0.01
                     37                     38                     39
                        a                      a                      a 
 Frequencies --   591.4329               602.7704               646.0015
 Red. masses --     6.9087                 4.6707                 8.6791
 Frc consts  --     0.0000                 0.0000                 0.0000
 IR Inten    --    11.2439                 3.2471                 1.5225
 Raman Activ --     0.0000                 0.0000                 0.0000
 Depolar     --     0.0000                 0.0000                 0.0000
 Atom AN      X      Y      Z        X      Y      Z        X      Y      Z
   1   8    -0.10  -0.20   0.11     0.05  -0.00  -0.05     0.03  -0.04   0.03
   2   6    -0.21   0.30  -0.21     0.03  -0.04  -0.03    -0.08   0.09  -0.11
   3   6    -0.03   0.05  -0.38    -0.02   0.03  -0.01     0.01  -0.01  -0.00
   4   6     0.14  -0.22   0.17    -0.00   0.02   0.03    -0.04   0.04  -0.12
   5   6    -0.03   0.12  -0.12    -0.00  -0.01  -0.01     0.10  -0.11   0.27
   6   6     0.06   0.07   0.05    -0.01  -0.02   0.00    -0.23   0.29  -0.65
   7   6    -0.05   0.05  -0.05    -0.00  -0.01  -0.01     0.12  -0.14   0.33
   8   7    -0.10   0.07   0.12     0.02  -0.02  -0.01    -0.03   0.05  -0.09
   9   6    -0.15   0.02   0.06     0.02  -0.00  -0.01    -0.01   0.00  -0.01
  10   6    -0.12  -0.15  -0.04     0.02   0.03   0.00     0.00  -0.01   0.01
  11   6    -0.04  -0.07  -0.00     0.01   0.01   0.00    -0.01   0.00  -0.01
  12   6     0.15  -0.05  -0.09    -0.02   0.01   0.01     0.01  -0.01   0.01
  13   6     0.09   0.09   0.02    -0.01  -0.02  -0.00    -0.00   0.01  -0.01
  14   6     0.00   0.03   0.00     0.00  -0.00  -0.00     0.00  -0.01   0.01
  15  16     0.01  -0.03  -0.00    -0.00   0.01   0.01    -0.01   0.01  -0.04
  16   8     0.28  -0.11   0.10    -0.04   0.00   0.03     0.11  -0.13   0.27
  17   7     0.15   0.01   0.19    -0.03  -0.03   0.00     0.02  -0.02   0.03
  18   6    -0.11   0.04   0.12    -0.00  -0.00   0.04    -0.01   0.00   0.01
  19   6    -0.04  -0.02   0.02    -0.04  -0.02   0.08    -0.00  -0.00   0.01
  20   6    -0.02  -0.04  -0.07    -0.07   0.08   0.12    -0.00  -0.00  -0.01
  21   6     0.06   0.13  -0.06    -0.13   0.34  -0.06     0.00   0.01  -0.01
  22   7    -0.04   0.02   0.03     0.09   0.23   0.09    -0.00   0.01  -0.00
  23   6     0.02  -0.01  -0.00     0.24   0.19  -0.00     0.00   0.00  -0.00
  24   6     0.04  -0.01  -0.00     0.11  -0.22  -0.06     0.01  -0.00  -0.00
  25   7    -0.00   0.02  -0.01     0.21  -0.33  -0.05     0.00  -0.00  -0.01
  26   6    -0.05  -0.03   0.03     0.13  -0.22  -0.02    -0.00  -0.01   0.02
  27   8    -0.01  -0.05  -0.01    -0.39  -0.01   0.01    -0.01  -0.01  -0.01
  28   6     0.08   0.08  -0.03    -0.14   0.07  -0.16     0.00   0.00   0.00
  29   1     0.03  -0.12   0.11     0.01   0.01   0.01    -0.02   0.01  -0.03
  30   1    -0.05   0.07  -0.06     0.00  -0.00  -0.01     0.06  -0.07   0.17
  31   1    -0.02  -0.04  -0.01     0.00   0.01   0.00    -0.00  -0.00   0.00
  32   1    -0.03   0.03   0.03     0.01  -0.01  -0.00    -0.00   0.00  -0.00
  33   1     0.04  -0.01  -0.03    -0.01   0.00   0.00     0.00  -0.00   0.00
  34   1     0.01   0.02   0.02    -0.00  -0.00  -0.00    -0.00   0.00  -0.01
  35   1    -0.01  -0.03   0.01    -0.02   0.02   0.01    -0.00   0.00   0.01
  36   1    -0.07   0.00   0.04     0.03   0.01   0.00    -0.00   0.00   0.00
  37   1    -0.02  -0.01  -0.04     0.01   0.00   0.00    -0.00  -0.00   0.00
  38   1     0.05  -0.02   0.04    -0.03  -0.03   0.03     0.00   0.00   0.00
  39   1    -0.00  -0.05  -0.03     0.02  -0.07  -0.03     0.00  -0.00  -0.00
  40   1     0.01  -0.01   0.02     0.01   0.02   0.16    -0.00  -0.00   0.00
  41   1     0.04   0.03   0.01    -0.06   0.11  -0.01     0.00   0.00  -0.00
  42   1     0.02  -0.01   0.00     0.09   0.05   0.01     0.00   0.00   0.00
  43   1    -0.00  -0.01   0.01     0.04   0.05   0.02    -0.00   0.00   0.00
  44   1     0.02  -0.01   0.00     0.01  -0.10  -0.01     0.00  -0.00   0.00
  45   1     0.01   0.00   0.01    -0.05  -0.07   0.00     0.00   0.00   0.00
  46   1     0.00   0.03   0.01     0.09  -0.12   0.12     0.00   0.00   0.00
  47   1     0.02   0.01  -0.06    -0.08  -0.01  -0.14    -0.00  -0.00  -0.00
  48   1     0.01  -0.03   0.01    -0.01  -0.04  -0.01     0.00  -0.00   0.00
                     40                     41                     42
                        a                      a                      a 
 Frequencies --   653.9820               663.8727               676.5831
 Red. masses --    11.0156                 6.9527                 7.8626
 Frc consts  --     0.0000                 0.0000                 0.0000
 IR Inten    --    69.6613                11.8544                 6.0738
 Raman Activ --     0.0000                 0.0000                 0.0000
 Depolar     --     0.0000                 0.0000                 0.0000
 Atom AN      X      Y      Z        X      Y      Z        X      Y      Z
   1   8     0.02  -0.03  -0.06    -0.06   0.20   0.28    -0.09   0.13   0.27
   2   6     0.06  -0.02  -0.01    -0.29   0.04   0.05    -0.29   0.10   0.01
   3   6     0.01   0.01   0.00    -0.06  -0.06   0.08     0.00  -0.12   0.01
   4   6    -0.01   0.01   0.01     0.07  -0.02  -0.06     0.07  -0.10  -0.09
   5   6    -0.01  -0.01  -0.00     0.07  -0.00  -0.02     0.08   0.12   0.02
   6   6    -0.01  -0.01   0.01     0.07   0.01  -0.00     0.07   0.12   0.04
   7   6    -0.02  -0.03  -0.01     0.14   0.31   0.08    -0.12  -0.36  -0.12
   8   7    -0.01  -0.04  -0.01     0.14   0.32   0.10    -0.19  -0.30  -0.07
   9   6     0.02   0.01  -0.00    -0.11  -0.07   0.01     0.06   0.11   0.03
  10   6     0.02   0.02   0.00    -0.16  -0.20  -0.03     0.11   0.20   0.05
  11   6     0.01   0.00  -0.00    -0.03  -0.01   0.00    -0.04  -0.03   0.00
  12   6    -0.01   0.00   0.00     0.04   0.02  -0.00     0.04  -0.06  -0.05
  13   6    -0.00  -0.01  -0.01    -0.00   0.11   0.05     0.05  -0.09  -0.05
  14   6     0.01   0.00  -0.00    -0.11  -0.05   0.02     0.15   0.09  -0.02
  15  16    -0.01   0.02   0.01     0.09  -0.21  -0.13    -0.15   0.20   0.14
  16   8    -0.02  -0.00  -0.00     0.00   0.02  -0.03     0.15   0.10  -0.03
  17   7    -0.03   0.02   0.01     0.05  -0.12  -0.09     0.07  -0.09  -0.04
  18   6    -0.04   0.02   0.04     0.22  -0.11  -0.25     0.17  -0.08  -0.19
  19   6    -0.00  -0.01   0.01     0.02   0.01  -0.07     0.01   0.01  -0.06
  20   6     0.01  -0.02  -0.03    -0.01   0.05   0.12    -0.02   0.04   0.09
  21   6     0.04   0.03  -0.01    -0.12  -0.10   0.04    -0.10  -0.08   0.03
  22   7    -0.01   0.02  -0.22     0.03   0.02  -0.05     0.03   0.01  -0.02
  23   6     0.01   0.02  -0.02     0.04   0.02  -0.01     0.03  -0.00  -0.01
  24   6    -0.01  -0.02  -0.03    -0.01  -0.06  -0.02    -0.01  -0.06  -0.01
  25   7    -0.02   0.02  -0.24     0.01  -0.05  -0.03    -0.01  -0.04   0.00
  26   6     0.03  -0.05   0.87     0.05   0.01   0.13     0.04   0.02   0.04
  27   8    -0.03   0.01  -0.30    -0.02   0.06  -0.04     0.00   0.06  -0.01
  28   6     0.02   0.00   0.04    -0.08  -0.06  -0.05    -0.06  -0.03  -0.06
  29   1    -0.01   0.00   0.00     0.04   0.03  -0.02     0.01  -0.04  -0.03
  30   1    -0.00  -0.00  -0.00     0.01   0.00  -0.01    -0.02   0.06   0.03
  31   1     0.01   0.01   0.00    -0.08  -0.06   0.00     0.08   0.06  -0.01
  32   1     0.00  -0.01  -0.00    -0.03   0.04   0.03     0.00  -0.04  -0.02
  33   1    -0.00   0.00   0.00    -0.00  -0.01  -0.00     0.03   0.01  -0.01
  34   1    -0.00  -0.00  -0.00     0.01   0.03   0.01    -0.01  -0.02  -0.01
  35   1    -0.02   0.01   0.01     0.07  -0.03  -0.06     0.06  -0.04  -0.05
  36   1     0.00   0.01   0.01     0.05  -0.03  -0.07     0.02  -0.03  -0.05
  37   1    -0.02  -0.01   0.01     0.03   0.01   0.03     0.03   0.01   0.01
  38   1     0.02   0.01   0.01    -0.10   0.01  -0.07    -0.07  -0.00  -0.05
  39   1    -0.01   0.02   0.01    -0.00   0.02   0.03    -0.00   0.01   0.02
  40   1    -0.01  -0.01  -0.02     0.00   0.02   0.02     0.00   0.01   0.02
  41   1     0.01   0.01  -0.01    -0.06  -0.01  -0.01    -0.05  -0.01  -0.00
  42   1     0.02   0.02   0.01     0.02   0.01   0.00     0.02   0.01   0.00
  43   1    -0.01   0.00   0.01    -0.01   0.02   0.01    -0.01   0.01   0.01
  44   1    -0.01  -0.05   0.01    -0.00  -0.03  -0.00     0.00  -0.02  -0.00
  45   1    -0.01   0.01   0.03    -0.01  -0.01   0.01    -0.01  -0.01   0.00
  46   1     0.02   0.05   0.02     0.00  -0.02  -0.00    -0.01  -0.02  -0.01
  47   1     0.01  -0.00  -0.01    -0.06  -0.02   0.08    -0.05  -0.01   0.06
  48   1     0.01  -0.02   0.02    -0.01   0.07  -0.04    -0.01   0.06  -0.04
                     43                     44                     45
                        a                      a                      a 
 Frequencies --   684.5856               691.8941               698.7935
 Red. masses --     7.3417                 9.1911                 4.6237
 Frc consts  --     0.0000                 0.0000                 0.0000
 IR Inten    --     0.2281                 9.9690                11.7203
 Raman Activ --     0.0000                 0.0000                 0.0000
 Depolar     --     0.0000                 0.0000                 0.0000
 Atom AN      X      Y      Z        X      Y      Z        X      Y      Z
   1   8     0.00  -0.00   0.00     0.18  -0.15   0.03     0.03  -0.08  -0.07
   2   6    -0.01   0.01  -0.02    -0.24   0.35  -0.49     0.07   0.06  -0.05
   3   6     0.01  -0.01   0.01     0.23  -0.20   0.51     0.04   0.01   0.02
   4   6    -0.00   0.00  -0.01    -0.09   0.08  -0.12    -0.04   0.02   0.01
   5   6     0.00  -0.00   0.01    -0.02  -0.04   0.05    -0.04  -0.02   0.01
   6   6    -0.01   0.01  -0.02     0.01  -0.05   0.09    -0.02  -0.02   0.00
   7   6    -0.03   0.03  -0.08    -0.01   0.03  -0.02    -0.01   0.01   0.01
   8   7     0.07  -0.10   0.21     0.01   0.01  -0.00     0.01  -0.01  -0.00
   9   6    -0.19   0.24  -0.54     0.01  -0.02   0.01     0.00  -0.01  -0.01
  10   6     0.07  -0.08   0.18     0.00  -0.00  -0.01     0.00  -0.01  -0.01
  11   6    -0.08   0.10  -0.22     0.01   0.00   0.01     0.02   0.01  -0.00
  12   6     0.06  -0.08   0.18    -0.01   0.01   0.00    -0.02   0.01   0.01
  13   6    -0.08   0.10  -0.23    -0.00  -0.00   0.01    -0.01   0.01   0.01
  14   6     0.16  -0.19   0.44    -0.01  -0.00  -0.01    -0.02  -0.01   0.00
  15  16    -0.01   0.01  -0.01     0.01  -0.01  -0.00     0.02   0.01  -0.01
  16   8     0.00  -0.00   0.01    -0.09   0.05  -0.20    -0.02  -0.03  -0.02
  17   7     0.00  -0.00   0.00     0.04  -0.06   0.08     0.09   0.03   0.06
  18   6    -0.00   0.00   0.00    -0.07   0.03   0.09    -0.06   0.07   0.08
  19   6     0.00  -0.00   0.00     0.01  -0.01   0.05    -0.01   0.06   0.05
  20   6     0.00  -0.00  -0.00     0.01  -0.02  -0.04    -0.03   0.05   0.06
  21   6    -0.00   0.00  -0.00     0.03   0.03  -0.02    -0.10  -0.10  -0.01
  22   7    -0.00   0.00   0.00    -0.01   0.01   0.01     0.11   0.01   0.01
  23   6     0.00   0.00  -0.00    -0.01   0.02  -0.00     0.16  -0.20  -0.06
  24   6     0.00   0.00  -0.00     0.02   0.04   0.01    -0.08  -0.43  -0.11
  25   7     0.00  -0.00   0.00     0.03   0.01  -0.01    -0.33  -0.13   0.12
  26   6    -0.00  -0.00  -0.00    -0.02  -0.03  -0.01     0.09   0.31   0.04
  27   8    -0.00  -0.00   0.00    -0.02  -0.05   0.00     0.14   0.43   0.01
  28   6    -0.00  -0.00   0.00    -0.01  -0.01   0.04    -0.01   0.06  -0.12
  29   1    -0.00   0.00  -0.01    -0.06   0.05  -0.11    -0.02  -0.00   0.00
  30   1     0.00  -0.00   0.01    -0.02   0.01  -0.04    -0.00  -0.01  -0.01
  31   1     0.06  -0.08   0.18    -0.01   0.00  -0.00    -0.01  -0.00   0.00
  32   1     0.01  -0.02   0.04     0.00   0.00  -0.00     0.01   0.00  -0.00
  33   1     0.04  -0.05   0.11    -0.01   0.00  -0.00    -0.01  -0.00   0.00
  34   1    -0.00   0.00  -0.01     0.00  -0.00  -0.00     0.00   0.00   0.00
  35   1    -0.00   0.00   0.00    -0.03   0.03   0.03     0.02  -0.04   0.02
  36   1     0.00   0.00   0.00     0.01   0.02   0.02    -0.08  -0.00   0.01
  37   1    -0.00  -0.00   0.00    -0.01  -0.01   0.01     0.04   0.02  -0.11
  38   1     0.00   0.00   0.00     0.03   0.01   0.02     0.03  -0.10   0.06
  39   1     0.00   0.00  -0.00     0.01   0.00  -0.01     0.01  -0.03  -0.01
  40   1    -0.00  -0.00  -0.00    -0.00  -0.01  -0.01     0.04   0.03   0.04
  41   1    -0.00   0.00  -0.00     0.01   0.01  -0.01    -0.03  -0.02   0.01
  42   1     0.00   0.00  -0.00    -0.00   0.00  -0.00     0.10  -0.03   0.01
  43   1    -0.00   0.00   0.00    -0.01   0.00   0.00    -0.02  -0.00   0.04
  44   1     0.00  -0.00   0.00     0.01   0.01   0.00     0.04  -0.15  -0.01
  45   1    -0.00   0.00   0.00     0.00   0.01   0.00    -0.00  -0.08   0.02
  46   1     0.00   0.00   0.00     0.01   0.01   0.02    -0.15  -0.05  -0.19
  47   1     0.00  -0.00  -0.00     0.01  -0.00  -0.02     0.01   0.02  -0.04
  48   1     0.00  -0.00   0.00     0.00  -0.03   0.03    -0.01  -0.00  -0.03
                     46                     47                     48
                        a                      a                      a 
 Frequencies --   708.8539               723.4152               774.7414
 Red. masses --     7.9590                 2.8610                 1.2987
 Frc consts  --     0.0000                 0.0000                 0.0000
 IR Inten    --     0.6647                17.7833                38.1176
 Raman Activ --     0.0000                 0.0000                 0.0000
 Depolar     --     0.0000                 0.0000                 0.0000
 Atom AN      X      Y      Z        X      Y      Z        X      Y      Z
   1   8    -0.02   0.01   0.03     0.02  -0.05  -0.04     0.00   0.00   0.00
   2   6    -0.03   0.01   0.01     0.07   0.06  -0.02    -0.00   0.00   0.00
   3   6     0.01  -0.02  -0.03     0.03   0.03  -0.02     0.00  -0.00   0.00
   4   6     0.02  -0.03  -0.02    -0.03   0.02   0.02    -0.00   0.00  -0.00
   5   6     0.02   0.05   0.01    -0.03  -0.02   0.00    -0.00   0.00  -0.00
   6   6    -0.01   0.04   0.02    -0.02  -0.02  -0.00    -0.00   0.00  -0.01
   7   6    -0.10  -0.17  -0.04    -0.01   0.02   0.01    -0.01   0.01  -0.02
   8   7    -0.05  -0.27  -0.10     0.00   0.01   0.00     0.03  -0.04   0.09
   9   6    -0.07  -0.21  -0.07     0.01   0.00  -0.00    -0.09   0.11  -0.24
  10   6    -0.02  -0.33  -0.14     0.01   0.01   0.00     0.07  -0.09   0.20
  11   6     0.31   0.12  -0.06    -0.00   0.00   0.00     0.04  -0.05   0.12
  12   6    -0.19   0.16   0.14    -0.00  -0.00  -0.00     0.06  -0.08   0.18
  13   6    -0.20   0.24   0.18     0.00  -0.01  -0.01     0.06  -0.07   0.16
  14   6    -0.26  -0.05   0.07     0.01  -0.00  -0.00    -0.03   0.04  -0.08
  15  16     0.34   0.30   0.01    -0.01  -0.01  -0.00     0.01  -0.01   0.02
  16   8     0.05   0.02  -0.00    -0.01  -0.03  -0.01     0.00  -0.00   0.00
  17   7     0.01  -0.01  -0.00     0.15   0.01   0.07     0.00  -0.00  -0.00
  18   6     0.02  -0.01  -0.02    -0.03   0.09   0.07     0.00  -0.00   0.00
  19   6     0.00   0.00  -0.01    -0.03   0.11   0.10    -0.00   0.00  -0.00
  20   6    -0.00   0.00   0.01    -0.08   0.13   0.22    -0.00   0.00  -0.00
  21   6    -0.01  -0.01   0.00    -0.22  -0.27  -0.01     0.00   0.00  -0.00
  22   7    -0.00  -0.00  -0.00     0.03  -0.17  -0.07     0.00   0.00   0.00
  23   6    -0.01   0.01   0.00    -0.23  -0.07   0.04    -0.00  -0.00   0.00
  24   6     0.00   0.02   0.01    -0.10   0.23   0.09    -0.00  -0.00   0.00
  25   7     0.02   0.00  -0.01     0.30   0.01  -0.08     0.00  -0.00   0.00
  26   6     0.00  -0.01   0.00     0.21  -0.06   0.04     0.00   0.00  -0.00
  27   8    -0.01  -0.01  -0.00     0.03   0.04  -0.02     0.00   0.00   0.00
  28   6    -0.00  -0.00  -0.01    -0.09   0.08  -0.31     0.00  -0.00  -0.00
  29   1    -0.00  -0.02  -0.00    -0.02  -0.01   0.01     0.00  -0.00   0.00
  30   1    -0.00   0.02   0.01    -0.00  -0.01  -0.00     0.00  -0.00   0.01
  31   1    -0.11  -0.09  -0.00     0.00   0.00   0.00    -0.11   0.14  -0.32
  32   1     0.08   0.04  -0.01     0.00  -0.00  -0.00    -0.14   0.18  -0.40
  33   1    -0.14  -0.07   0.02     0.00   0.00   0.00    -0.16   0.19  -0.44
  34   1    -0.01   0.07   0.04     0.00  -0.00  -0.00    -0.12   0.15  -0.34
  35   1     0.01  -0.01  -0.00     0.07  -0.09   0.01     0.00   0.00   0.00
  36   1    -0.00  -0.00  -0.00    -0.13  -0.02  -0.00     0.00   0.00  -0.00
  37   1     0.00   0.00  -0.00     0.10   0.04  -0.23    -0.00   0.00  -0.00
  38   1    -0.01  -0.00  -0.01    -0.00  -0.25   0.11    -0.00  -0.00  -0.00
  39   1    -0.00   0.00   0.00     0.01  -0.05   0.01    -0.00  -0.00  -0.00
  40   1     0.00   0.00   0.00     0.09   0.06   0.09     0.00   0.00   0.00
  41   1    -0.00  -0.00   0.00    -0.05  -0.07   0.02     0.00   0.00  -0.00
  42   1    -0.01   0.00  -0.00    -0.14  -0.03  -0.02    -0.00  -0.00  -0.00
  43   1     0.00   0.00  -0.00    -0.00  -0.02  -0.05     0.00  -0.00  -0.00
  44   1    -0.00   0.01   0.00    -0.09   0.13   0.00     0.00   0.00  -0.00
  45   1    -0.00   0.00  -0.00    -0.01   0.02  -0.05     0.00  -0.00  -0.00
  46   1     0.01  -0.00   0.01     0.10  -0.11   0.07    -0.00  -0.00  -0.00
  47   1    -0.00  -0.00   0.01    -0.02   0.03  -0.06    -0.00   0.00   0.00
  48   1    -0.00   0.01  -0.01    -0.04   0.02  -0.10     0.00   0.00  -0.00
                     49                     50                     51
                        a                      a                      a 
 Frequencies --   790.4035               819.4395               824.3515
 Red. masses --     3.0265                 6.3417                 1.2564
 Frc consts  --     0.0000                 0.0000                 0.0000
 IR Inten    --     6.2625                22.7374                16.0437
 Raman Activ --     0.0000                 0.0000                 0.0000
 Depolar     --     0.0000                 0.0000                 0.0000
 Atom AN      X      Y      Z        X      Y      Z        X      Y      Z
   1   8    -0.02  -0.04  -0.03     0.03   0.02  -0.01     0.01  -0.01   0.00
   2   6     0.07   0.06   0.01    -0.03  -0.05  -0.02    -0.01   0.03  -0.03
   3   6     0.05   0.03  -0.02    -0.10   0.06   0.06     0.03  -0.01   0.09
   4   6    -0.02   0.02   0.01    -0.20  -0.01   0.11    -0.11   0.09  -0.14
   5   6    -0.03  -0.01   0.00    -0.12  -0.30  -0.02    -0.15   0.09  -0.33
   6   6    -0.02  -0.02   0.00     0.31  -0.04  -0.15     0.08  -0.04   0.05
   7   6    -0.02   0.01   0.01     0.33  -0.28  -0.24     0.05  -0.04  -0.06
   8   7    -0.01  -0.00   0.00     0.20  -0.04  -0.09     0.04  -0.01  -0.02
   9   6     0.00   0.00  -0.00     0.00  -0.02  -0.01     0.00  -0.01   0.00
  10   6     0.01   0.01  -0.00    -0.16  -0.07   0.02    -0.03  -0.01   0.00
  11   6     0.01   0.01  -0.00    -0.24  -0.11   0.04    -0.04  -0.02   0.01
  12   6    -0.01   0.00   0.00     0.12  -0.07  -0.08     0.02  -0.01  -0.02
  13   6    -0.00  -0.01  -0.01    -0.00   0.27   0.12    -0.00   0.05   0.02
  14   6     0.00  -0.01  -0.00    -0.03   0.12   0.06    -0.00   0.02   0.01
  15  16     0.00  -0.00  -0.00    -0.05   0.08   0.05    -0.01   0.01   0.01
  16   8     0.01  -0.04  -0.02     0.02   0.25   0.09     0.02   0.01   0.06
  17   7     0.11   0.07   0.01     0.00  -0.01  -0.02     0.00  -0.00   0.01
  18   6     0.04   0.13   0.02    -0.02   0.02   0.04     0.00  -0.00  -0.00
  19   6     0.05   0.12   0.02    -0.01   0.02   0.03     0.00  -0.00  -0.01
  20   6     0.01  -0.10  -0.02    -0.01  -0.01   0.00     0.00  -0.00  -0.00
  21   6    -0.17  -0.42   0.05     0.03  -0.01   0.00    -0.01   0.00   0.00
  22   7     0.01   0.15   0.03     0.00   0.00  -0.00    -0.00  -0.00   0.00
  23   6     0.27   0.42  -0.04     0.01   0.01  -0.00    -0.00  -0.00   0.00
  24   6     0.05   0.03  -0.06     0.00   0.00  -0.00     0.00  -0.00   0.00
  25   7    -0.14   0.01   0.02    -0.02   0.01   0.00     0.00  -0.00  -0.00
  26   6    -0.19  -0.08  -0.01    -0.01  -0.00  -0.00     0.00   0.00   0.00
  27   8    -0.12  -0.24  -0.00    -0.00  -0.01  -0.00     0.00   0.00  -0.00
  28   6     0.07  -0.11  -0.02     0.04   0.02  -0.05    -0.01  -0.00   0.01
  29   1    -0.02  -0.02   0.02    -0.01   0.11  -0.05     0.14  -0.16   0.39
  30   1     0.01  -0.01   0.00    -0.16   0.01  -0.08     0.23  -0.30   0.67
  31   1     0.00   0.00  -0.00    -0.05  -0.02   0.01    -0.01  -0.00   0.00
  32   1     0.00  -0.00  -0.00    -0.09   0.03   0.05    -0.02   0.00   0.01
  33   1    -0.00   0.00   0.00     0.02  -0.03  -0.02     0.01  -0.01   0.00
  34   1     0.00  -0.00  -0.00    -0.07   0.08   0.06    -0.01   0.01   0.02
  35   1     0.11  -0.11   0.02     0.01  -0.01   0.03    -0.00   0.00   0.00
  36   1    -0.16  -0.02  -0.01    -0.03  -0.00   0.00     0.00   0.00  -0.00
  37   1     0.01   0.02  -0.14    -0.00   0.00  -0.03    -0.00  -0.00   0.01
  38   1     0.05  -0.09   0.05     0.01  -0.02   0.02    -0.00   0.01  -0.01
  39   1     0.02   0.04  -0.01    -0.00  -0.00   0.00     0.00   0.00   0.00
  40   1     0.02  -0.01  -0.12     0.00  -0.00  -0.01    -0.00  -0.00  -0.00
  41   1    -0.09  -0.07   0.03     0.02  -0.00   0.02    -0.00   0.00  -0.00
  42   1     0.17   0.12   0.03     0.01   0.00   0.00    -0.00  -0.00  -0.00
  43   1    -0.01   0.12   0.06    -0.00   0.01   0.00     0.00  -0.00  -0.00
  44   1     0.06  -0.10   0.02     0.01  -0.01   0.00    -0.00   0.00  -0.00
  45   1    -0.10   0.06   0.09    -0.00   0.01   0.01     0.00  -0.00  -0.00
  46   1    -0.03   0.12   0.01    -0.00   0.01  -0.00     0.00  -0.00   0.00
  47   1     0.06   0.02   0.16     0.01   0.01   0.01    -0.00  -0.00  -0.01
  48   1    -0.03   0.09  -0.07     0.01   0.02  -0.02     0.00  -0.01   0.01
                     52                     53                     54
                        a                      a                      a 
 Frequencies --   851.2231               856.1485               867.4975
 Red. masses --     2.9246                 1.3472                 1.7916
 Frc consts  --     0.0000                 0.0000                 0.0000
 IR Inten    --    11.1854                 3.3685                18.0379
 Raman Activ --     0.0000                 0.0000                 0.0000
 Depolar     --     0.0000                 0.0000                 0.0000
 Atom AN      X      Y      Z        X      Y      Z        X      Y      Z
   1   8    -0.09  -0.08   0.01    -0.02  -0.02   0.00    -0.07  -0.03   0.03
   2   6     0.18   0.25   0.07     0.05   0.07   0.02     0.10   0.16   0.05
   3   6     0.18   0.14  -0.05     0.04   0.04  -0.03     0.12   0.09  -0.02
   4   6    -0.17   0.18   0.02     0.09  -0.12   0.36    -0.07   0.10   0.10
   5   6    -0.11  -0.12   0.10    -0.12   0.06  -0.20    -0.09  -0.02   0.01
   6   6    -0.00  -0.06  -0.02    -0.01  -0.01  -0.03    -0.02  -0.03  -0.01
   7   6     0.02  -0.03  -0.02     0.00  -0.01   0.01    -0.00  -0.00   0.00
   8   7     0.02  -0.04  -0.02    -0.00  -0.01  -0.00     0.03  -0.05  -0.03
   9   6     0.01  -0.01  -0.01    -0.00   0.00   0.00     0.02  -0.01  -0.01
  10   6    -0.01   0.00   0.01     0.00   0.00   0.00    -0.01   0.01   0.01
  11   6    -0.03  -0.02   0.00    -0.00  -0.00  -0.00    -0.04  -0.02   0.00
  12   6     0.02  -0.01  -0.01     0.00  -0.00  -0.00     0.02  -0.02  -0.01
  13   6     0.00   0.04   0.02    -0.00   0.00  -0.00     0.00   0.05   0.02
  14   6    -0.00   0.02   0.01    -0.00   0.00   0.00    -0.01   0.02   0.01
  15  16    -0.00   0.01   0.01    -0.00   0.00   0.00     0.00   0.01   0.00
  16   8     0.11  -0.13  -0.09     0.03  -0.03  -0.04     0.09  -0.12  -0.08
  17   7     0.09   0.10   0.13     0.03   0.03   0.05    -0.01   0.12  -0.02
  18   6     0.14  -0.01  -0.13     0.04   0.01  -0.04     0.06  -0.23  -0.00
  19   6     0.12  -0.00  -0.25     0.05   0.00  -0.08    -0.13  -0.04   0.05
  20   6     0.04  -0.10  -0.07     0.02  -0.05  -0.02    -0.19   0.27  -0.09
  21   6    -0.29  -0.05   0.10    -0.10  -0.02   0.04     0.01  -0.04  -0.16
  22   7    -0.04   0.03   0.01    -0.01   0.01   0.01     0.00  -0.02  -0.03
  23   6    -0.01  -0.02   0.03    -0.00  -0.00   0.01    -0.01   0.01  -0.04
  24   6    -0.00  -0.03   0.03    -0.00  -0.01   0.01    -0.01   0.04  -0.02
  25   7     0.09  -0.06  -0.02     0.03  -0.02  -0.01    -0.00   0.02   0.01
  26   6     0.06   0.01   0.00     0.02   0.00   0.00     0.00  -0.01  -0.01
  27   8     0.01   0.05   0.00     0.00   0.02   0.00    -0.00  -0.02  -0.00
  28   6    -0.24  -0.00   0.22    -0.08   0.02   0.06     0.11  -0.21   0.17
  29   1    -0.02  -0.09   0.21    -0.25   0.29  -0.63    -0.08   0.01  -0.02
  30   1    -0.04   0.02  -0.18     0.12  -0.16   0.34     0.03  -0.04  -0.01
  31   1    -0.00   0.00   0.00    -0.00   0.00  -0.00     0.00   0.00   0.01
  32   1    -0.01   0.00   0.00     0.00  -0.00   0.00    -0.01  -0.00   0.01
  33   1     0.00  -0.01  -0.01     0.00  -0.00   0.00     0.00  -0.01  -0.01
  34   1    -0.01   0.01   0.01     0.00  -0.00   0.00    -0.01   0.02   0.01
  35   1     0.06  -0.03  -0.02     0.03  -0.02   0.00    -0.14   0.13  -0.13
  36   1     0.01  -0.01  -0.02    -0.01  -0.00  -0.01     0.26   0.02   0.06
  37   1    -0.06  -0.01   0.10    -0.03  -0.01   0.03     0.20   0.06   0.03
  38   1    -0.02   0.17  -0.14     0.00   0.06  -0.04    -0.11  -0.09   0.00
  39   1     0.01   0.06  -0.00     0.00   0.03   0.00    -0.03  -0.29  -0.13
  40   1    -0.07  -0.05  -0.07    -0.04  -0.02  -0.04     0.23   0.13   0.24
  41   1    -0.12   0.00  -0.02    -0.04   0.00   0.00    -0.02  -0.02  -0.13
  42   1    -0.07  -0.01  -0.02    -0.02  -0.00  -0.01     0.07   0.00   0.02
  43   1     0.06  -0.02  -0.04     0.02  -0.01  -0.01    -0.05  -0.02   0.04
  44   1    -0.05   0.05  -0.01    -0.02   0.02  -0.00     0.04  -0.04   0.01
  45   1     0.02  -0.05  -0.05     0.00  -0.02  -0.02    -0.04   0.04   0.05
  46   1     0.03  -0.05   0.01     0.01  -0.02   0.00    -0.00   0.01   0.00
  47   1    -0.02  -0.02  -0.14    -0.01  -0.00  -0.06     0.06  -0.02   0.21
  48   1     0.01  -0.16   0.16     0.01  -0.06   0.06    -0.07   0.05  -0.04
                     55                     56                     57
                        a                      a                      a 
 Frequencies --   869.9757               883.6936               887.3043
 Red. masses --     1.2604                 7.3707                 1.3177
 Frc consts  --     0.0000                 0.0000                 0.0000
 IR Inten    --     0.1657                34.7721                 0.6163
 Raman Activ --     0.0000                 0.0000                 0.0000
 Depolar     --     0.0000                 0.0000                 0.0000
 Atom AN      X      Y      Z        X      Y      Z        X      Y      Z
   1   8    -0.00  -0.00   0.00     0.01  -0.00  -0.01     0.00   0.00   0.00
   2   6     0.00   0.00   0.00     0.00  -0.02  -0.00    -0.02  -0.01  -0.02
   3   6     0.00   0.00  -0.00     0.01  -0.04  -0.02    -0.02  -0.02   0.01
   4   6    -0.00   0.00  -0.00     0.12  -0.01  -0.04     0.02  -0.02  -0.02
   5   6     0.00  -0.00   0.00     0.09   0.21   0.05     0.01   0.01  -0.00
   6   6     0.00   0.00  -0.00    -0.19   0.04   0.09    -0.00   0.01   0.01
   7   6     0.00  -0.00   0.00    -0.11   0.22   0.14    -0.00   0.01   0.00
   8   7     0.01  -0.01   0.02     0.25  -0.33  -0.24     0.01  -0.01  -0.01
   9   6    -0.02   0.02  -0.04     0.15  -0.11  -0.10     0.01  -0.00  -0.00
  10   6     0.09  -0.11   0.25    -0.04   0.15   0.08    -0.00   0.00   0.00
  11   6     0.05  -0.07   0.15    -0.30  -0.15   0.04    -0.01  -0.00   0.00
  12   6    -0.05   0.07  -0.15     0.17  -0.14  -0.13     0.01  -0.00  -0.00
  13   6    -0.08   0.10  -0.24     0.01   0.37   0.16     0.00   0.01   0.00
  14   6     0.01  -0.01   0.03    -0.09   0.09   0.07    -0.00   0.00   0.00
  15  16    -0.00   0.00  -0.00     0.04  -0.02  -0.02     0.00  -0.00  -0.00
  16   8     0.00  -0.00  -0.00    -0.13  -0.20  -0.05    -0.02   0.01   0.01
  17   7    -0.00   0.00  -0.00    -0.00  -0.01  -0.00     0.00   0.02  -0.04
  18   6     0.00  -0.00  -0.00    -0.04   0.02  -0.02     0.03   0.03   0.04
  19   6    -0.00  -0.00   0.00     0.01  -0.01   0.03    -0.02   0.03   0.05
  20   6    -0.00   0.00  -0.00     0.06  -0.01   0.04    -0.07   0.01  -0.07
  21   6    -0.00  -0.00  -0.00     0.02   0.00  -0.00    -0.03   0.00  -0.02
  22   7    -0.00  -0.00  -0.00     0.00  -0.00   0.01     0.03   0.12  -0.10
  23   6    -0.00   0.00  -0.00     0.00   0.00  -0.00     0.18   0.05   0.20
  24   6    -0.00   0.00  -0.00    -0.00   0.00  -0.00     0.08  -0.16   0.19
  25   7     0.00   0.00   0.00    -0.01   0.00   0.00    -0.15  -0.02  -0.08
  26   6     0.00  -0.00  -0.00    -0.00  -0.00   0.00    -0.09   0.01   0.01
  27   8     0.00  -0.00  -0.00    -0.00  -0.00   0.00    -0.04  -0.03   0.00
  28   6     0.00  -0.00   0.00    -0.02   0.01  -0.03     0.11  -0.09   0.05
  29   1     0.00  -0.00   0.00    -0.03  -0.05  -0.03     0.01  -0.00  -0.01
  30   1    -0.00   0.00  -0.01     0.08   0.03  -0.01    -0.00   0.01   0.01
  31   1    -0.18   0.23  -0.51     0.00   0.04   0.01    -0.00   0.00  -0.00
  32   1    -0.07   0.09  -0.21    -0.09  -0.01   0.03    -0.00  -0.00   0.00
  33   1     0.07  -0.09   0.20     0.03  -0.05  -0.04     0.00  -0.00  -0.00
  34   1     0.18  -0.22   0.49    -0.09   0.10   0.08    -0.00   0.00   0.00
  35   1    -0.00   0.00  -0.00    -0.01  -0.01  -0.02     0.02  -0.02  -0.00
  36   1     0.00   0.00   0.00    -0.02   0.00  -0.01    -0.02  -0.00   0.02
  37   1     0.00   0.00   0.00    -0.02  -0.01  -0.00     0.02   0.01  -0.04
  38   1    -0.00  -0.00  -0.00     0.01  -0.00   0.01     0.02  -0.05   0.04
  39   1    -0.00  -0.00  -0.00     0.01   0.05   0.02     0.00  -0.07  -0.06
  40   1     0.00   0.00   0.00    -0.03  -0.01  -0.03     0.04   0.01   0.04
  41   1    -0.00  -0.00  -0.00     0.01  -0.00  -0.00    -0.03   0.01  -0.01
  42   1     0.00  -0.00   0.00     0.01   0.00   0.00    -0.38   0.05  -0.12
  43   1    -0.00  -0.00   0.00    -0.00   0.00   0.00     0.34   0.08  -0.24
  44   1     0.00  -0.00   0.00     0.00  -0.01   0.00    -0.25   0.30  -0.08
  45   1    -0.00   0.00   0.00    -0.00   0.00   0.00     0.24  -0.24  -0.29
  46   1     0.00   0.00   0.00    -0.00   0.00  -0.00    -0.04   0.03  -0.04
  47   1     0.00  -0.00   0.00    -0.01   0.00  -0.02     0.03  -0.01   0.12
  48   1    -0.00   0.00  -0.00    -0.00  -0.01  -0.00     0.01   0.07  -0.03
                     58                     59                     60
                        a                      a                      a 
 Frequencies --   903.3313               905.2414               923.1979
 Red. masses --     3.0902                 1.3313                 1.2358
 Frc consts  --     0.0000                 0.0000                 0.0000
 IR Inten    --     4.5159                 0.6235                 0.0433
 Raman Activ --     0.0000                 0.0000                 0.0000
 Depolar     --     0.0000                 0.0000                 0.0000
 Atom AN      X      Y      Z        X      Y      Z        X      Y      Z
   1   8    -0.06  -0.00   0.04     0.00  -0.00  -0.00    -0.00  -0.00   0.00
   2   6     0.04   0.11   0.04     0.00  -0.00  -0.00     0.00   0.00   0.00
   3   6     0.12   0.10  -0.02    -0.00  -0.00   0.00     0.00  -0.00  -0.00
   4   6    -0.10   0.15   0.11     0.00  -0.00   0.00     0.00  -0.00   0.00
   5   6    -0.09  -0.05   0.01    -0.00   0.00  -0.00     0.00   0.00   0.00
   6   6     0.01  -0.03  -0.02     0.00  -0.00   0.00    -0.00   0.00  -0.00
   7   6     0.01  -0.03  -0.01     0.00  -0.00   0.01    -0.00  -0.00   0.00
   8   7    -0.03   0.01   0.01    -0.01   0.01  -0.02     0.00  -0.00   0.00
   9   6    -0.01   0.01   0.01     0.02  -0.02   0.05    -0.02   0.03  -0.06
  10   6     0.00  -0.01  -0.01    -0.08   0.10  -0.22    -0.04   0.05  -0.12
  11   6     0.02   0.01  -0.00     0.06  -0.08   0.17     0.10  -0.12   0.28
  12   6    -0.01   0.01   0.01     0.08  -0.10   0.23    -0.08   0.10  -0.22
  13   6    -0.00  -0.02  -0.01    -0.09   0.11  -0.25     0.02  -0.03   0.07
  14   6     0.01  -0.00  -0.00     0.01  -0.01   0.02     0.02  -0.03   0.06
  15  16    -0.00   0.01   0.00    -0.00   0.00  -0.01     0.00  -0.00   0.00
  16   8     0.14  -0.09  -0.09    -0.00   0.00   0.00    -0.00  -0.00   0.00
  17   7     0.00  -0.00   0.03     0.00   0.00  -0.00     0.00   0.00   0.00
  18   6    -0.21  -0.06  -0.17     0.00  -0.00   0.00    -0.00  -0.00  -0.00
  19   6    -0.09  -0.17   0.12     0.00   0.00  -0.00    -0.00  -0.00  -0.00
  20   6     0.32   0.12   0.37    -0.00   0.00  -0.00     0.00   0.00   0.00
  21   6     0.27  -0.01  -0.16    -0.00  -0.00   0.00     0.00  -0.00  -0.00
  22   7     0.08  -0.02   0.00    -0.00   0.00  -0.00     0.00  -0.00   0.00
  23   6     0.07   0.05   0.03     0.00   0.00  -0.00     0.00   0.00  -0.00
  24   6     0.01  -0.00   0.02    -0.00  -0.00   0.00    -0.00   0.00   0.00
  25   7    -0.13   0.05   0.00     0.00  -0.00  -0.00    -0.00   0.00   0.00
  26   6    -0.06  -0.01  -0.00     0.00   0.00   0.00    -0.00  -0.00  -0.00
  27   8    -0.03  -0.06   0.00     0.00   0.00  -0.00    -0.00  -0.00   0.00
  28   6    -0.14  -0.09  -0.20     0.00   0.00   0.00    -0.00  -0.00  -0.00
  29   1    -0.05   0.03   0.02    -0.00   0.00  -0.00    -0.00   0.00  -0.00
  30   1     0.04  -0.04  -0.03     0.00  -0.00   0.00     0.00  -0.00   0.00
  31   1     0.00  -0.00  -0.00     0.12  -0.16   0.35     0.10  -0.12   0.28
  32   1     0.01   0.00  -0.00    -0.10   0.13  -0.29    -0.20   0.24  -0.55
  33   1    -0.00   0.00   0.00    -0.15   0.18  -0.41     0.15  -0.19   0.43
  34   1     0.01  -0.01  -0.00     0.15  -0.19   0.42    -0.07   0.09  -0.20
  35   1    -0.10   0.03  -0.11    -0.00   0.00  -0.00    -0.00   0.00  -0.00
  36   1    -0.01  -0.00  -0.05     0.00   0.00   0.00     0.00   0.00   0.00
  37   1    -0.08  -0.06   0.05     0.00   0.00   0.00    -0.00  -0.00   0.00
  38   1    -0.12  -0.05  -0.01     0.00   0.00   0.00    -0.00   0.00  -0.00
  39   1     0.07   0.26   0.17    -0.00  -0.00  -0.00     0.00   0.00   0.00
  40   1    -0.09  -0.00  -0.07     0.00   0.00   0.00    -0.00   0.00  -0.00
  41   1     0.06  -0.02  -0.15    -0.00  -0.00   0.00    -0.00  -0.00  -0.00
  42   1    -0.04   0.03  -0.02    -0.00   0.00  -0.00     0.00   0.00   0.00
  43   1     0.05   0.05  -0.03     0.00  -0.00  -0.00     0.00   0.00   0.00
  44   1    -0.02   0.04  -0.01    -0.00   0.00  -0.00     0.00  -0.00   0.00
  45   1     0.05  -0.01  -0.03    -0.00  -0.00  -0.00    -0.00   0.00   0.00
  46   1    -0.04   0.06  -0.02     0.00  -0.00   0.00    -0.00   0.00  -0.00
  47   1    -0.04  -0.01   0.01     0.00   0.00  -0.00     0.00   0.00  -0.00
  48   1    -0.16  -0.02  -0.11     0.00  -0.00   0.00    -0.00  -0.00   0.00
                     61                     62                     63
                        a                      a                      a 
 Frequencies --   931.4625               956.0691               975.7605
 Red. masses --     1.9946                 2.6613                 2.9360
 Frc consts  --     0.0000                 0.0000                 0.0000
 IR Inten    --     5.5501                 7.0801                 5.5795
 Raman Activ --     0.0000                 0.0000                 0.0000
 Depolar     --     0.0000                 0.0000                 0.0000
 Atom AN      X      Y      Z        X      Y      Z        X      Y      Z
   1   8    -0.01  -0.00  -0.00     0.00   0.00   0.01     0.04  -0.09  -0.11
   2   6     0.00   0.01  -0.00    -0.07  -0.05  -0.03     0.18   0.16  -0.00
   3   6     0.05   0.03   0.01     0.07   0.07   0.01    -0.03  -0.08  -0.01
   4   6    -0.04   0.06   0.04    -0.09   0.18   0.11     0.13  -0.25  -0.16
   5   6    -0.03  -0.02  -0.00    -0.05  -0.06  -0.01     0.07   0.07   0.01
   6   6    -0.01  -0.02  -0.00    -0.04  -0.03  -0.00     0.03   0.02  -0.00
   7   6    -0.01   0.01   0.01    -0.06   0.05   0.05     0.08  -0.06  -0.05
   8   7    -0.01  -0.01  -0.00    -0.02  -0.05  -0.02     0.04   0.07   0.01
   9   6     0.00  -0.00  -0.00     0.00  -0.01  -0.00     0.00   0.00   0.00
  10   6     0.00   0.00   0.00     0.01   0.03   0.01    -0.02  -0.03  -0.01
  11   6     0.00  -0.00  -0.00    -0.00  -0.00  -0.00    -0.01   0.00   0.00
  12   6     0.00  -0.00  -0.00     0.01  -0.01  -0.01    -0.01   0.01   0.01
  13   6     0.00   0.00   0.00     0.00   0.01   0.00    -0.00  -0.00   0.00
  14   6     0.00   0.00   0.00    -0.02  -0.01   0.00     0.02   0.01  -0.00
  15  16    -0.00   0.00   0.00     0.01  -0.00  -0.00    -0.01  -0.00   0.00
  16   8     0.06  -0.03  -0.04     0.20  -0.07  -0.11    -0.34   0.10   0.17
  17   7    -0.01   0.07  -0.10    -0.15  -0.10   0.06     0.04   0.17   0.16
  18   6     0.19   0.28  -0.07     0.26   0.04   0.24     0.25   0.06   0.05
  19   6    -0.05  -0.02   0.18     0.02   0.14  -0.29    -0.10  -0.04  -0.17
  20   6    -0.06  -0.08   0.02    -0.26  -0.10   0.08    -0.09   0.05   0.15
  21   6     0.01   0.28  -0.17     0.27   0.05   0.09     0.17  -0.02  -0.15
  22   7    -0.05   0.06   0.02     0.07  -0.02  -0.02     0.07  -0.04   0.00
  23   6    -0.17  -0.16  -0.02     0.01  -0.01   0.00     0.06   0.01  -0.00
  24   6     0.04  -0.04  -0.03     0.01   0.01   0.00    -0.02   0.05   0.01
  25   7     0.10  -0.01   0.00    -0.09   0.05   0.01    -0.09   0.03   0.00
  26   6     0.03   0.01  -0.00    -0.02  -0.02   0.00    -0.00  -0.02  -0.00
  27   8     0.02   0.05   0.00    -0.02  -0.04  -0.00    -0.02  -0.04   0.00
  28   6     0.06  -0.35   0.16    -0.05  -0.04  -0.26    -0.20  -0.10   0.05
  29   1    -0.02   0.01   0.01    -0.01   0.07   0.03    -0.03  -0.14  -0.05
  30   1     0.04  -0.03  -0.02     0.14  -0.09  -0.09    -0.21   0.13   0.13
  31   1     0.00   0.00   0.00     0.01   0.01  -0.00    -0.02  -0.01   0.00
  32   1     0.00  -0.00  -0.00     0.00  -0.01  -0.00    -0.01   0.01   0.01
  33   1    -0.00  -0.00  -0.00     0.00  -0.01  -0.00    -0.00   0.01   0.00
  34   1    -0.00   0.00   0.00     0.00   0.00   0.00    -0.00  -0.00   0.00
  35   1     0.26  -0.22  -0.00     0.13  -0.02   0.22     0.13  -0.08   0.00
  36   1    -0.29  -0.03  -0.03     0.02  -0.00   0.07    -0.01  -0.00   0.09
  37   1    -0.17  -0.06  -0.09    -0.01   0.04  -0.01    -0.04  -0.01   0.03
  38   1     0.00  -0.07   0.08    -0.05   0.09  -0.11    -0.18   0.01  -0.12
  39   1     0.07   0.07  -0.07    -0.23  -0.14   0.16    -0.11  -0.04   0.11
  40   1    -0.16  -0.07   0.07    -0.03  -0.02   0.05    -0.02   0.01   0.06
  41   1    -0.08   0.11  -0.13     0.11   0.02   0.16     0.03  -0.02  -0.12
  42   1     0.02  -0.04   0.02    -0.00   0.00   0.00     0.01   0.01  -0.00
  43   1    -0.07  -0.08   0.03    -0.00   0.02  -0.00     0.02   0.00  -0.00
  44   1     0.05  -0.04   0.00     0.01   0.01   0.00     0.00   0.01   0.00
  45   1     0.01   0.01   0.02     0.03   0.01   0.00     0.01   0.02   0.01
  46   1     0.03  -0.02   0.01    -0.03   0.04  -0.01    -0.03   0.01  -0.02
  47   1    -0.05  -0.07   0.27    -0.06  -0.01   0.02     0.01  -0.00  -0.02
  48   1    -0.04   0.12  -0.07    -0.12   0.04  -0.13    -0.19  -0.13  -0.01
                     64                     65                     66
                        a                      a                      a 
 Frequencies --   997.4394              1012.4418              1015.5596
 Red. masses --     2.2572                 2.3273                 3.0651
 Frc consts  --     0.0000                 0.0000                 0.0000
 IR Inten    --    17.7670                 8.5131                 4.8663
 Raman Activ --     0.0000                 0.0000                 0.0000
 Depolar     --     0.0000                 0.0000                 0.0000
 Atom AN      X      Y      Z        X      Y      Z        X      Y      Z
   1   8     0.01  -0.02  -0.03     0.00  -0.00  -0.00     0.01  -0.03  -0.03
   2   6     0.07   0.06   0.02     0.00  -0.00   0.01     0.04   0.04  -0.00
   3   6     0.01  -0.00  -0.01     0.01   0.01  -0.00    -0.06  -0.08  -0.01
   4   6     0.03  -0.04  -0.03    -0.00   0.01   0.01     0.05  -0.14  -0.09
   5   6     0.02   0.06   0.02     0.01   0.03   0.01    -0.10  -0.35  -0.11
   6   6     0.01   0.01  -0.00     0.01   0.00  -0.00    -0.04  -0.05  -0.01
   7   6     0.05  -0.05  -0.04     0.02  -0.02  -0.02    -0.23   0.24   0.19
   8   7     0.02   0.04   0.01     0.01   0.01   0.00    -0.12  -0.13  -0.02
   9   6     0.00   0.00   0.00     0.00   0.00   0.00    -0.00  -0.03  -0.01
  10   6    -0.01  -0.02  -0.01    -0.01  -0.02  -0.01     0.07   0.18   0.05
  11   6    -0.00   0.00   0.00    -0.00   0.00   0.00     0.00  -0.02  -0.01
  12   6    -0.01   0.01   0.01    -0.01   0.01   0.01     0.07  -0.06  -0.05
  13   6    -0.00  -0.00  -0.00    -0.00  -0.00  -0.00     0.02   0.05   0.01
  14   6     0.02   0.01  -0.00     0.02   0.01  -0.00    -0.18  -0.14   0.00
  15  16    -0.01  -0.00   0.00    -0.01  -0.00   0.00     0.07   0.01  -0.02
  16   8    -0.11  -0.03   0.03    -0.03  -0.03  -0.00     0.21   0.36   0.09
  17   7     0.04   0.01   0.05    -0.02   0.01   0.00     0.06   0.07   0.06
  18   6    -0.26   0.02   0.16     0.11  -0.06  -0.04    -0.01   0.01   0.02
  19   6     0.18  -0.11  -0.27    -0.08   0.08   0.08    -0.03  -0.08  -0.07
  20   6     0.03   0.09   0.14     0.00  -0.05  -0.04     0.03   0.07   0.05
  21   6    -0.19  -0.03   0.09     0.11  -0.06  -0.01    -0.04  -0.05  -0.07
  22   7    -0.09   0.08  -0.02     0.04   0.02  -0.01    -0.01  -0.01  -0.00
  23   6    -0.20   0.02   0.03    -0.43   0.18   0.13    -0.05   0.04   0.02
  24   6     0.09  -0.18  -0.06     0.21  -0.42  -0.17     0.03  -0.06  -0.03
  25   7     0.16  -0.01   0.01     0.17   0.11   0.06     0.04   0.01   0.01
  26   6    -0.02   0.03  -0.01    -0.06   0.02  -0.02    -0.01   0.01  -0.01
  27   8     0.03   0.05   0.00     0.02   0.02   0.01     0.01   0.01   0.00
  28   6     0.24  -0.17  -0.24    -0.12   0.06   0.05     0.01   0.00   0.04
  29   1    -0.04  -0.06  -0.01    -0.04  -0.03  -0.00     0.35   0.28   0.01
  30   1    -0.06   0.05   0.05     0.00   0.01   0.00    -0.09  -0.08  -0.00
  31   1    -0.01  -0.01   0.00    -0.01  -0.00   0.00     0.07   0.05  -0.00
  32   1    -0.00   0.01   0.00    -0.00   0.00   0.00     0.02  -0.05  -0.03
  33   1    -0.00   0.01   0.00    -0.00   0.00   0.00     0.00  -0.04  -0.02
  34   1    -0.00  -0.00   0.00    -0.01  -0.00   0.00     0.05   0.01  -0.01
  35   1    -0.11   0.06   0.04     0.01   0.00  -0.02     0.01  -0.01  -0.01
  36   1     0.01   0.04   0.13     0.04  -0.01  -0.05    -0.01   0.01   0.06
  37   1    -0.06  -0.04   0.22     0.06   0.03  -0.10    -0.03  -0.02   0.05
  38   1     0.05   0.26  -0.15    -0.03  -0.13   0.06    -0.07   0.03  -0.06
  39   1     0.03   0.04   0.02    -0.04  -0.02   0.04     0.02   0.01  -0.00
  40   1    -0.09  -0.01   0.11     0.07   0.01  -0.10    -0.01   0.01   0.03
  41   1    -0.10   0.02   0.00     0.03  -0.01   0.02    -0.02  -0.02  -0.09
  42   1    -0.05   0.03   0.02    -0.16   0.09   0.03    -0.03   0.02   0.00
  43   1    -0.07   0.02   0.02    -0.16   0.21   0.03    -0.02   0.03   0.00
  44   1     0.01  -0.04  -0.02     0.04  -0.12  -0.04     0.00  -0.02  -0.01
  45   1     0.02  -0.05  -0.02     0.12  -0.08  -0.02     0.00  -0.01  -0.00
  46   1     0.06   0.08   0.04     0.09   0.37   0.08     0.02   0.05   0.01
  47   1     0.02  -0.01   0.25     0.00   0.01  -0.10     0.04   0.02   0.01
  48   1    -0.02   0.20  -0.20    -0.02  -0.09   0.06    -0.02  -0.02   0.01
                     67                     68                     69
                        a                      a                      a 
 Frequencies --  1035.2279              1051.9093              1067.4633
 Red. masses --     1.3079                 2.4134                 2.2643
 Frc consts  --     0.0000                 0.0000                 0.0000
 IR Inten    --    29.8369                10.9912                 4.1036
 Raman Activ --     0.0000                 0.0000                 0.0000
 Depolar     --     0.0000                 0.0000                 0.0000
 Atom AN      X      Y      Z        X      Y      Z        X      Y      Z
   1   8    -0.00   0.00   0.00     0.01  -0.00  -0.01    -0.03  -0.01   0.02
   2   6     0.01   0.01   0.00    -0.02  -0.03  -0.01     0.08   0.12   0.03
   3   6    -0.00   0.05   0.02    -0.03  -0.05  -0.01     0.06   0.03  -0.02
   4   6     0.11   0.13   0.01     0.00  -0.03  -0.02     0.03  -0.04  -0.02
   5   6    -0.12   0.07   0.08    -0.02  -0.07  -0.02     0.00  -0.04  -0.02
   6   6     0.03   0.02  -0.00    -0.06   0.01   0.02     0.03  -0.04  -0.03
   7   6     0.02  -0.03  -0.02    -0.06   0.14   0.08     0.00  -0.02  -0.01
   8   7     0.01  -0.01  -0.01     0.08  -0.14  -0.09    -0.06   0.07   0.05
   9   6    -0.01   0.01   0.01     0.03  -0.05  -0.03    -0.03  -0.07  -0.02
  10   6    -0.01  -0.03  -0.01    -0.14  -0.19  -0.04    -0.02   0.28   0.13
  11   6     0.01   0.01   0.00     0.15   0.17   0.02     0.22   0.17  -0.00
  12   6    -0.01   0.01   0.01    -0.03  -0.04  -0.01     0.22  -0.26  -0.19
  13   6    -0.01  -0.02  -0.01    -0.10  -0.16  -0.03    -0.10  -0.09  -0.00
  14   6     0.04   0.04   0.00     0.44   0.41   0.03    -0.19  -0.11   0.02
  15  16    -0.02  -0.00   0.01    -0.11  -0.07   0.01     0.05   0.02  -0.01
  16   8     0.00  -0.37  -0.16     0.06   0.07   0.01    -0.05   0.08   0.05
  17   7    -0.03  -0.02  -0.02     0.02   0.01   0.02    -0.01   0.03  -0.02
  18   6     0.01  -0.01  -0.01     0.01   0.03   0.03    -0.06  -0.08  -0.10
  19   6     0.03   0.05   0.03    -0.03  -0.05  -0.04     0.10   0.11   0.08
  20   6    -0.02  -0.04  -0.02     0.01   0.05   0.02    -0.03  -0.12  -0.04
  21   6     0.03   0.03   0.04    -0.02  -0.03  -0.05     0.05   0.08   0.13
  22   7     0.01   0.01  -0.00    -0.01  -0.02  -0.00     0.03   0.07   0.00
  23   6    -0.01  -0.02   0.00     0.01   0.02   0.01    -0.05  -0.05  -0.01
  24   6     0.00   0.01  -0.00    -0.01  -0.01  -0.00     0.04   0.03   0.01
  25   7    -0.01   0.00   0.00     0.01   0.00   0.00    -0.06  -0.01  -0.01
  26   6     0.01  -0.01   0.00    -0.01   0.01  -0.00     0.03  -0.03   0.01
  27   8    -0.00  -0.00  -0.00     0.01   0.00   0.00    -0.02  -0.02  -0.00
  28   6    -0.02  -0.03  -0.03     0.02   0.04   0.03    -0.09  -0.12  -0.09
  29   1     0.39   0.39   0.04     0.10   0.09   0.01    -0.08  -0.10  -0.02
  30   1    -0.52   0.26   0.31     0.07  -0.06  -0.05    -0.08   0.03   0.04
  31   1    -0.01  -0.01   0.00    -0.33  -0.05   0.10    -0.33   0.08   0.16
  32   1    -0.00   0.01   0.01     0.00   0.15   0.06     0.06   0.08   0.01
  33   1     0.00   0.01   0.00     0.00  -0.00  -0.00    -0.02  -0.19  -0.08
  34   1    -0.02  -0.00   0.00    -0.39  -0.03   0.12    -0.23  -0.03   0.07
  35   1    -0.00   0.00  -0.01     0.02  -0.02   0.01    -0.06   0.04  -0.07
  36   1     0.01  -0.00  -0.03    -0.01   0.00   0.04     0.04  -0.01  -0.08
  37   1     0.02   0.01  -0.02    -0.03  -0.02   0.02     0.10   0.05  -0.03
  38   1     0.04  -0.01   0.03    -0.05   0.01  -0.04     0.14  -0.01   0.08
  39   1    -0.02  -0.01   0.01     0.01   0.00  -0.01    -0.04  -0.01   0.03
  40   1     0.00  -0.01  -0.02    -0.00   0.01   0.03     0.01  -0.02  -0.06
  41   1     0.01   0.02   0.05    -0.00  -0.02  -0.06    -0.01   0.06   0.14
  42   1     0.00  -0.01  -0.00    -0.01   0.01  -0.00     0.01  -0.02   0.01
  43   1    -0.00  -0.00  -0.00     0.00   0.01  -0.00    -0.02  -0.04   0.01
  44   1     0.01   0.00   0.00    -0.01  -0.00  -0.00     0.03   0.01   0.00
  45   1     0.01   0.01   0.00    -0.01  -0.00   0.00     0.07   0.02  -0.00
  46   1    -0.01  -0.01  -0.00     0.01   0.01   0.00    -0.02  -0.04  -0.01
  47   1    -0.03  -0.01   0.00     0.03   0.01  -0.01    -0.05  -0.03   0.05
  48   1    -0.01   0.01  -0.01     0.02  -0.01   0.02    -0.09   0.01  -0.07
                     70                     71                     72
                        a                      a                      a 
 Frequencies --  1072.8548              1080.6353              1092.0025
 Red. masses --     2.7420                 1.8577                 1.9626
 Frc consts  --     0.0000                 0.0000                 0.0000
 IR Inten    --    14.1544                 6.4295                11.8927
 Raman Activ --     0.0000                 0.0000                 0.0000
 Depolar     --     0.0000                 0.0000                 0.0000
 Atom AN      X      Y      Z        X      Y      Z        X      Y      Z
   1   8    -0.03  -0.02   0.01     0.01   0.01  -0.01     0.00  -0.00  -0.01
   2   6     0.11   0.17   0.04    -0.04  -0.06  -0.01    -0.00  -0.00  -0.00
   3   6     0.06  -0.02  -0.04    -0.02  -0.01   0.01     0.01  -0.00  -0.00
   4   6     0.05  -0.11  -0.06    -0.02   0.02   0.02    -0.00  -0.00   0.00
   5   6    -0.03  -0.13  -0.04     0.01   0.03   0.01    -0.00  -0.01  -0.00
   6   6    -0.05  -0.04  -0.00     0.01   0.02   0.00     0.00   0.00  -0.00
   7   6    -0.08   0.13   0.08     0.02  -0.03  -0.02    -0.00   0.00   0.00
   8   7     0.03  -0.11  -0.06    -0.00   0.02   0.01    -0.00  -0.00   0.00
   9   6     0.03   0.02  -0.00    -0.00   0.00   0.00    -0.00  -0.00  -0.00
  10   6     0.00  -0.21  -0.09     0.00   0.02   0.01     0.00   0.00   0.00
  11   6    -0.13  -0.09   0.00     0.01   0.01  -0.00     0.00  -0.00  -0.00
  12   6    -0.15   0.17   0.13     0.02  -0.02  -0.01     0.00  -0.00  -0.00
  13   6     0.05   0.04  -0.00    -0.00  -0.00   0.00    -0.00   0.00   0.00
  14   6     0.20   0.14  -0.01    -0.03  -0.02   0.00    -0.00  -0.00  -0.00
  15  16    -0.05  -0.03   0.00     0.01   0.00  -0.00     0.00   0.00   0.00
  16   8    -0.02   0.19   0.10     0.01  -0.04  -0.02    -0.00   0.01   0.01
  17   7     0.02   0.08  -0.01     0.03  -0.02   0.01    -0.00   0.00   0.03
  18   6    -0.10  -0.09  -0.16    -0.06   0.12  -0.05    -0.08   0.14  -0.22
  19   6     0.16   0.13   0.11     0.10  -0.12   0.02     0.22  -0.11   0.13
  20   6    -0.05  -0.14  -0.05    -0.09   0.12  -0.02    -0.17   0.08  -0.05
  21   6     0.06   0.09   0.18    -0.05  -0.05   0.02     0.14   0.01   0.10
  22   7     0.06   0.09  -0.00     0.21  -0.02  -0.12    -0.05  -0.15  -0.06
  23   6    -0.10  -0.07  -0.00    -0.08  -0.03   0.28     0.25  -0.00   0.08
  24   6     0.08   0.06   0.00     0.12   0.19  -0.26    -0.29  -0.09  -0.08
  25   7    -0.11  -0.01  -0.00    -0.27  -0.02   0.10     0.23   0.09   0.04
  26   6     0.07  -0.05   0.01     0.17  -0.11  -0.01    -0.13   0.07  -0.02
  27   8    -0.04  -0.03  -0.00    -0.08  -0.08  -0.00     0.06   0.03   0.00
  28   6    -0.14  -0.18  -0.11    -0.02   0.06   0.04    -0.13  -0.05  -0.02
  29   1     0.03  -0.02  -0.02     0.00   0.02   0.01     0.00   0.00   0.00
  30   1    -0.02  -0.03  -0.01     0.03  -0.00  -0.01     0.00  -0.00  -0.00
  31   1     0.18  -0.06  -0.09    -0.01   0.01   0.01    -0.00   0.00   0.00
  32   1    -0.04  -0.04  -0.00     0.00   0.00  -0.00     0.00  -0.00  -0.00
  33   1     0.01   0.13   0.05    -0.00  -0.01  -0.01    -0.00  -0.00  -0.00
  34   1     0.08   0.02  -0.02    -0.00  -0.00   0.00     0.00   0.00  -0.00
  35   1    -0.08   0.04  -0.12     0.04  -0.05  -0.02     0.04  -0.07  -0.11
  36   1     0.04  -0.00  -0.09    -0.09   0.01   0.03    -0.12   0.01  -0.03
  37   1     0.14   0.06  -0.01    -0.03  -0.04   0.11     0.05  -0.02   0.14
  38   1     0.20   0.02   0.11     0.03   0.08  -0.02     0.16   0.11   0.04
  39   1    -0.06  -0.02   0.04     0.05  -0.05  -0.10    -0.00  -0.11  -0.08
  40   1     0.01  -0.02  -0.05    -0.03   0.01   0.16    -0.03   0.01   0.19
  41   1    -0.03   0.09   0.18    -0.03  -0.01  -0.04     0.16  -0.06   0.13
  42   1     0.01  -0.03   0.01    -0.18  -0.17  -0.06    -0.05  -0.06  -0.05
  43   1    -0.03  -0.03   0.01     0.06   0.25  -0.07     0.11   0.08  -0.05
  44   1     0.06   0.01   0.00     0.08  -0.23   0.02    -0.18  -0.11   0.01
  45   1     0.13   0.04   0.01     0.30   0.29   0.18    -0.30  -0.02   0.04
  46   1    -0.04  -0.07  -0.03    -0.09  -0.03  -0.03     0.10   0.26   0.08
  47   1    -0.06  -0.04   0.07     0.00   0.01  -0.05    -0.02  -0.01  -0.02
  48   1    -0.15   0.00  -0.10     0.05  -0.01   0.05    -0.14  -0.07  -0.02
                     73                     74                     75
                        a                      a                      a 
 Frequencies --  1095.5266              1128.1217              1129.3299
 Red. masses --     1.8979                 1.6713                 1.3979
 Frc consts  --     0.0000                 0.0000                 0.0000
 IR Inten    --    10.2601                 4.3559                14.7528
 Raman Activ --     0.0000                 0.0000                 0.0000
 Depolar     --     0.0000                 0.0000                 0.0000
 Atom AN      X      Y      Z        X      Y      Z        X      Y      Z
   1   8    -0.03  -0.00   0.02    -0.02   0.02   0.03     0.04   0.01  -0.03
   2   6     0.04   0.07   0.01    -0.00   0.00   0.01    -0.06  -0.09  -0.02
   3   6     0.04   0.01  -0.01    -0.02   0.01   0.01    -0.09  -0.08   0.00
   4   6     0.02  -0.02  -0.02    -0.00  -0.01  -0.00    -0.07  -0.02   0.01
   5   6    -0.01  -0.04  -0.01     0.00  -0.00  -0.00    -0.01   0.08   0.04
   6   6    -0.01  -0.03  -0.01     0.00   0.00   0.00     0.01   0.09   0.04
   7   6    -0.02   0.03   0.02    -0.00   0.00   0.00     0.05  -0.07  -0.05
   8   7    -0.00  -0.02  -0.01    -0.00  -0.00  -0.00     0.01   0.04   0.02
   9   6     0.00  -0.00  -0.00    -0.00   0.00   0.00     0.00   0.01   0.00
  10   6     0.00  -0.01  -0.01     0.00  -0.00  -0.00    -0.00   0.01   0.01
  11   6    -0.01  -0.00   0.00     0.00   0.00   0.00     0.00  -0.00  -0.00
  12   6    -0.01   0.01   0.01     0.00  -0.00  -0.00     0.01  -0.01  -0.01
  13   6     0.00   0.00  -0.00    -0.00  -0.00  -0.00    -0.00   0.00   0.00
  14   6     0.02   0.02   0.00    -0.00   0.00   0.00    -0.02  -0.02  -0.00
  15  16    -0.00  -0.00  -0.00     0.00  -0.00  -0.00     0.00   0.00   0.00
  16   8    -0.01   0.05   0.02     0.01  -0.01  -0.01     0.01  -0.06  -0.02
  17   7    -0.01   0.03  -0.05     0.10   0.01  -0.13     0.22   0.10  -0.09
  18   6     0.07  -0.17   0.16    -0.08  -0.08   0.03    -0.04   0.13   0.07
  19   6    -0.17   0.16  -0.07     0.15   0.15  -0.01    -0.03  -0.07   0.00
  20   6     0.14  -0.15   0.03    -0.17  -0.12   0.21     0.04   0.00  -0.04
  21   6    -0.05   0.12  -0.03    -0.07  -0.02  -0.28     0.08  -0.00   0.08
  22   7    -0.17   0.05  -0.07     0.22   0.01   0.03    -0.14  -0.00  -0.00
  23   6     0.15  -0.10   0.27     0.05  -0.13  -0.07    -0.04   0.08   0.04
  24   6    -0.13   0.09  -0.25    -0.17  -0.03   0.04     0.12   0.01   0.00
  25   7     0.17  -0.10   0.07    -0.03   0.15   0.02     0.03  -0.10  -0.03
  26   6    -0.09   0.07  -0.01     0.07  -0.07  -0.02    -0.08   0.07   0.01
  27   8     0.05   0.06   0.01    -0.06  -0.09   0.00     0.04   0.05   0.00
  28   6     0.08  -0.08  -0.03     0.05   0.08   0.11    -0.20  -0.11  -0.01
  29   1    -0.02  -0.04  -0.01    -0.00  -0.01  -0.00     0.11   0.13   0.02
  30   1    -0.04   0.01   0.02     0.00  -0.00  -0.00     0.16  -0.06  -0.08
  31   1     0.01  -0.00  -0.00     0.00  -0.00  -0.00    -0.02   0.00   0.01
  32   1    -0.00  -0.00   0.00    -0.00   0.00   0.00     0.00  -0.00  -0.00
  33   1     0.00   0.01   0.00     0.00   0.00   0.00    -0.01  -0.01  -0.00
  34   1    -0.00   0.00   0.00    -0.00  -0.00   0.00     0.02   0.00  -0.01
  35   1    -0.06   0.07   0.05    -0.07   0.06   0.05    -0.01  -0.08  -0.34
  36   1     0.13  -0.01  -0.02     0.05  -0.01  -0.13    -0.05   0.04   0.32
  37   1    -0.00   0.04  -0.15     0.00   0.03  -0.02     0.12   0.02   0.09
  38   1    -0.04  -0.10   0.02     0.30   0.10   0.11     0.19   0.08   0.07
  39   1    -0.06   0.09   0.13    -0.23  -0.05   0.24    -0.29  -0.12   0.29
  40   1     0.01  -0.03  -0.21    -0.16  -0.07   0.09     0.15   0.05  -0.14
  41   1    -0.05   0.04  -0.06    -0.19   0.04  -0.36    -0.04  -0.02  -0.21
  42   1    -0.16  -0.25  -0.10     0.03   0.03   0.01    -0.00  -0.04  -0.01
  43   1     0.21   0.10  -0.12    -0.04  -0.00   0.02     0.01   0.00  -0.00
  44   1    -0.12  -0.26   0.02    -0.07   0.02   0.00     0.06   0.01  -0.00
  45   1    -0.14   0.16   0.15     0.03   0.00  -0.01    -0.06  -0.03  -0.01
  46   1     0.06   0.00   0.05     0.01   0.25   0.03    -0.00  -0.17  -0.02
  47   1    -0.03  -0.03   0.07     0.04   0.02  -0.05    -0.11  -0.05  -0.02
  48   1     0.05   0.08  -0.04     0.14   0.02   0.08     0.10   0.04   0.03
                     76                     77                     78
                        a                      a                      a 
 Frequencies --  1133.6218              1145.2224              1148.6056
 Red. masses --     2.2230                 1.3410                 1.6281
 Frc consts  --     0.0000                 0.0000                 0.0000
 IR Inten    --     4.3685                 4.1570                10.3445
 Raman Activ --     0.0000                 0.0000                 0.0000
 Depolar     --     0.0000                 0.0000                 0.0000
 Atom AN      X      Y      Z        X      Y      Z        X      Y      Z
   1   8     0.00  -0.00   0.00    -0.00   0.01   0.01     0.05  -0.04  -0.07
   2   6    -0.01  -0.01  -0.00    -0.01  -0.01  -0.00     0.04   0.03  -0.00
   3   6    -0.02  -0.00   0.01     0.01   0.05   0.02    -0.14  -0.19  -0.02
   4   6    -0.01  -0.00   0.00     0.01   0.02   0.00    -0.12  -0.12  -0.01
   5   6     0.00   0.01   0.00     0.02  -0.04  -0.02    -0.05   0.16   0.09
   6   6     0.00   0.01   0.00     0.04  -0.02  -0.02    -0.00   0.21   0.09
   7   6     0.00  -0.00  -0.00    -0.01   0.05   0.03     0.09  -0.14  -0.10
   8   7     0.00   0.00   0.00     0.07  -0.12  -0.08     0.06   0.08   0.01
   9   6    -0.00   0.00   0.00    -0.03   0.14   0.07     0.01   0.04   0.02
  10   6    -0.00  -0.00  -0.00     0.02  -0.09  -0.05     0.00  -0.01  -0.00
  11   6     0.00   0.00   0.00     0.02   0.17   0.07     0.00   0.03   0.01
  12   6     0.00  -0.00  -0.00     0.15  -0.00  -0.06     0.04  -0.01  -0.02
  13   6    -0.00  -0.00  -0.00    -0.17  -0.22  -0.04    -0.04  -0.04  -0.00
  14   6    -0.00  -0.00   0.00    -0.22  -0.07   0.05    -0.08  -0.05   0.01
  15  16     0.00   0.00  -0.00     0.04   0.01  -0.01     0.01   0.01  -0.00
  16   8     0.00  -0.02  -0.01     0.00   0.00   0.00    -0.08  -0.11  -0.02
  17   7    -0.05  -0.01   0.04     0.01  -0.01  -0.03     0.00   0.10   0.14
  18   6    -0.03  -0.06  -0.14     0.00   0.02   0.02    -0.03  -0.05  -0.09
  19   6     0.19   0.09   0.05    -0.01  -0.02   0.00     0.07   0.11  -0.02
  20   6    -0.17  -0.08   0.17     0.00   0.02  -0.01    -0.01  -0.13   0.07
  21   6     0.07  -0.09  -0.25     0.01  -0.01   0.02    -0.06   0.03  -0.09
  22   7    -0.30  -0.09  -0.01    -0.01  -0.02  -0.00     0.04   0.13   0.02
  23   6    -0.08   0.24   0.12    -0.00   0.02   0.01     0.00  -0.12  -0.03
  24   6     0.27   0.04  -0.04     0.02  -0.00   0.00    -0.08   0.01  -0.02
  25   7     0.03  -0.20  -0.04    -0.00  -0.01  -0.00     0.02   0.02   0.02
  26   6    -0.13   0.13   0.02    -0.01   0.01   0.00     0.03  -0.03   0.00
  27   8     0.09   0.12   0.00     0.00   0.01   0.00    -0.02  -0.02  -0.00
  28   6     0.11   0.09   0.09    -0.02  -0.00  -0.01     0.07  -0.01   0.04
  29   1     0.01   0.01   0.00    -0.07  -0.07  -0.01     0.28   0.28   0.03
  30   1     0.01  -0.00  -0.01    -0.06   0.02   0.03     0.34  -0.13  -0.18
  31   1     0.00  -0.00  -0.00     0.47  -0.03  -0.18     0.06  -0.00  -0.02
  32   1    -0.00   0.00   0.00    -0.18   0.49   0.28    -0.04   0.11   0.07
  33   1     0.00  -0.00  -0.00     0.15   0.13   0.01     0.02   0.00  -0.00
  34   1    -0.00  -0.00  -0.00    -0.24  -0.06   0.06    -0.02  -0.01   0.00
  35   1    -0.01   0.05   0.14     0.01  -0.01  -0.00    -0.03   0.02  -0.02
  36   1     0.01  -0.02  -0.23    -0.01   0.00   0.01     0.04   0.01   0.01
  37   1     0.01   0.01   0.00    -0.02  -0.01   0.00     0.15   0.07   0.00
  38   1     0.12   0.04   0.04     0.02   0.01   0.01    -0.15  -0.06  -0.06
  39   1    -0.07  -0.03   0.06    -0.02  -0.02   0.01     0.08   0.07  -0.05
  40   1    -0.15  -0.06   0.13     0.01   0.01   0.00    -0.03  -0.03  -0.06
  41   1     0.11  -0.08  -0.05     0.01  -0.01  -0.03    -0.06   0.08   0.15
  42   1    -0.05  -0.03  -0.01    -0.00  -0.00  -0.00    -0.00   0.00   0.00
  43   1     0.05   0.02  -0.02    -0.00   0.01   0.00     0.02  -0.08  -0.01
  44   1     0.12  -0.01  -0.01     0.01   0.01  -0.00    -0.08  -0.04   0.01
  45   1    -0.08  -0.03  -0.01    -0.01  -0.01  -0.00     0.07   0.04   0.02
  46   1    -0.02  -0.35  -0.05    -0.00  -0.02  -0.00     0.01   0.09   0.02
  47   1     0.19   0.08   0.01    -0.03  -0.01  -0.01     0.14   0.05   0.06
  48   1    -0.17  -0.13  -0.00     0.04   0.02   0.01    -0.23  -0.10  -0.06
                     79                     80                     81
                        a                      a                      a 
 Frequencies --  1165.7657              1167.7285              1179.7129
 Red. masses --     1.3969                 1.2350                 1.1046
 Frc consts  --     0.0000                 0.0000                 0.0000
 IR Inten    --     5.9713                14.8215                 0.9995
 Raman Activ --     0.0000                 0.0000                 0.0000
 Depolar     --     0.0000                 0.0000                 0.0000
 Atom AN      X      Y      Z        X      Y      Z        X      Y      Z
   1   8    -0.01   0.00   0.02    -0.01  -0.01   0.00     0.00  -0.00  -0.00
   2   6     0.04   0.07   0.01     0.06   0.09   0.02     0.00   0.00   0.00
   3   6    -0.02  -0.06  -0.02     0.01  -0.07  -0.03    -0.01  -0.01  -0.00
   4   6    -0.03  -0.06  -0.02    -0.02  -0.06  -0.02    -0.01  -0.00   0.00
   5   6    -0.04   0.04   0.03    -0.04   0.04   0.03    -0.00   0.01   0.01
   6   6    -0.01   0.07   0.03    -0.01   0.06   0.03    -0.01   0.00   0.00
   7   6     0.03  -0.05  -0.03     0.03  -0.05  -0.03    -0.00  -0.05  -0.02
   8   7     0.02   0.03   0.01     0.02   0.03   0.01    -0.05   0.06   0.04
   9   6     0.01   0.01   0.00     0.01   0.01   0.00     0.01  -0.09  -0.05
  10   6    -0.00  -0.00   0.00    -0.00  -0.00  -0.00     0.10  -0.02  -0.05
  11   6    -0.00   0.00   0.00    -0.00   0.00   0.00    -0.03  -0.06  -0.02
  12   6     0.00  -0.00  -0.00     0.00  -0.00  -0.00     0.09   0.09   0.01
  13   6    -0.01  -0.00   0.00    -0.01  -0.00   0.00    -0.03  -0.01   0.01
  14   6    -0.01  -0.01   0.00    -0.01  -0.01   0.00    -0.18  -0.04   0.04
  15  16     0.00   0.00  -0.00     0.00   0.00  -0.00     0.04   0.02  -0.01
  16   8    -0.04  -0.02   0.01    -0.06  -0.01   0.02     0.01   0.00  -0.00
  17   7     0.05   0.06  -0.09     0.00   0.04  -0.02     0.00   0.00  -0.00
  18   6     0.14  -0.17   0.13     0.06  -0.10   0.07     0.00  -0.00   0.00
  19   6    -0.17  -0.02  -0.04    -0.08   0.03  -0.03    -0.00   0.00  -0.00
  20   6     0.08   0.20  -0.10     0.04   0.06  -0.04     0.00   0.00  -0.00
  21   6     0.04  -0.04   0.22    -0.03   0.03   0.11    -0.00   0.00   0.00
  22   7    -0.04  -0.07   0.03     0.10  -0.05  -0.11     0.00   0.00  -0.00
  23   6     0.01   0.07  -0.07    -0.00  -0.03   0.15    -0.00  -0.00   0.00
  24   6     0.02   0.03  -0.08     0.00  -0.05   0.12    -0.00   0.00   0.00
  25   7     0.01  -0.06   0.05    -0.07   0.13  -0.10    -0.00   0.00  -0.00
  26   6    -0.01   0.02   0.01     0.05  -0.04  -0.03     0.00  -0.00  -0.00
  27   8     0.02   0.03  -0.00    -0.03  -0.04   0.01    -0.00  -0.00   0.00
  28   6    -0.12  -0.05  -0.07    -0.03  -0.04  -0.03    -0.00  -0.00  -0.00
  29   1     0.10   0.09   0.00     0.10   0.09   0.00     0.01   0.01   0.00
  30   1     0.11  -0.05  -0.06     0.11  -0.05  -0.06     0.01  -0.00  -0.00
  31   1    -0.00  -0.00   0.00    -0.00  -0.00   0.00    -0.08  -0.01   0.02
  32   1    -0.01   0.02   0.01    -0.01   0.02   0.01     0.12  -0.32  -0.18
  33   1    -0.00  -0.01  -0.00    -0.00  -0.01  -0.00     0.45   0.60   0.11
  34   1     0.01  -0.00  -0.00     0.01  -0.00  -0.00    -0.39   0.00   0.14
  35   1    -0.02   0.03   0.01    -0.02   0.03   0.03    -0.00   0.00  -0.00
  36   1     0.08  -0.04  -0.19     0.05  -0.02  -0.12     0.00  -0.00  -0.00
  37   1    -0.45  -0.14  -0.17    -0.19  -0.05  -0.10    -0.01  -0.00  -0.00
  38   1     0.33   0.08   0.13     0.10   0.03   0.04     0.00   0.00   0.00
  39   1     0.04  -0.01  -0.05     0.07   0.03  -0.07     0.00   0.00  -0.00
  40   1    -0.07   0.01   0.17    -0.07  -0.01   0.09    -0.00  -0.00   0.00
  41   1     0.06  -0.07  -0.05    -0.02   0.00  -0.02    -0.00   0.00  -0.00
  42   1    -0.04   0.24   0.05     0.04  -0.31  -0.06    -0.00  -0.00   0.00
  43   1     0.05  -0.19  -0.01    -0.06   0.35   0.00     0.00   0.00  -0.00
  44   1    -0.19  -0.10   0.00     0.45   0.21  -0.01     0.00   0.00  -0.00
  45   1     0.15   0.09   0.04    -0.38  -0.18  -0.08    -0.00  -0.00  -0.00
  46   1     0.00  -0.00   0.01    -0.02   0.00  -0.03    -0.00   0.00  -0.00
  47   1     0.03   0.02   0.01    -0.02  -0.01   0.00     0.00   0.00   0.00
  48   1    -0.07  -0.03  -0.03     0.01   0.02  -0.02    -0.00  -0.00  -0.00
                     82                     83                     84
                        a                      a                      a 
 Frequencies --  1198.8129              1201.1871              1229.8189
 Red. masses --     1.2753                 1.6106                 1.5983
 Frc consts  --     0.0000                 0.0000                 0.0000
 IR Inten    --     8.4598               100.5561                 6.3332
 Raman Activ --     0.0000                 0.0000                 0.0000
 Depolar     --     0.0000                 0.0000                 0.0000
 Atom AN      X      Y      Z        X      Y      Z        X      Y      Z
   1   8    -0.03  -0.01   0.01     0.08   0.01  -0.06    -0.02  -0.01   0.01
   2   6     0.08   0.11   0.03    -0.16  -0.23  -0.05     0.03   0.05   0.01
   3   6     0.11  -0.06  -0.07    -0.21   0.11   0.14     0.07  -0.03  -0.05
   4   6     0.02  -0.03  -0.02    -0.04   0.05   0.04     0.02   0.01  -0.01
   5   6    -0.07   0.02   0.04     0.14  -0.04  -0.07    -0.04   0.01   0.02
   6   6    -0.02   0.02   0.02     0.05  -0.03  -0.03    -0.02  -0.01   0.00
   7   6     0.02  -0.04  -0.02    -0.03   0.07   0.04     0.01  -0.02  -0.01
   8   7     0.02   0.03   0.01    -0.03  -0.06  -0.01     0.01   0.02   0.01
   9   6     0.01  -0.00  -0.01    -0.03   0.00   0.01     0.01  -0.01  -0.01
  10   6     0.00  -0.00  -0.00    -0.01   0.00   0.01     0.00   0.00  -0.00
  11   6    -0.01  -0.00   0.00     0.01   0.00  -0.00    -0.01  -0.00   0.00
  12   6     0.00  -0.00  -0.00    -0.00   0.00   0.00    -0.00   0.00   0.00
  13   6    -0.01   0.00   0.00     0.01  -0.00  -0.00    -0.00   0.00   0.00
  14   6    -0.01  -0.01  -0.00     0.01   0.01   0.00     0.00  -0.00  -0.00
  15  16     0.00   0.00   0.00    -0.00  -0.00  -0.00    -0.00   0.00   0.00
  16   8    -0.09   0.03   0.04     0.16  -0.06  -0.08    -0.05   0.01   0.02
  17   7    -0.10  -0.04   0.02     0.18   0.13   0.01    -0.14  -0.09   0.11
  18   6     0.01   0.00  -0.02     0.04  -0.05   0.04     0.04   0.09  -0.12
  19   6     0.01  -0.01   0.03    -0.09   0.03  -0.06    -0.00  -0.28   0.12
  20   6    -0.02  -0.02   0.00     0.07   0.03  -0.00     0.06   0.13  -0.14
  21   6     0.00   0.04  -0.02    -0.04   0.00   0.07     0.03  -0.07   0.17
  22   7    -0.06  -0.12  -0.05    -0.00   0.15  -0.04    -0.05   0.30  -0.00
  23   6     0.09   0.07  -0.16     0.02  -0.11  -0.06    -0.04  -0.12   0.00
  24   6    -0.09  -0.08   0.12    -0.09  -0.04   0.07    -0.03   0.00   0.02
  25   7     0.15   0.08   0.06     0.09   0.05   0.01     0.04  -0.03  -0.01
  26   6    -0.15   0.07   0.02    -0.07   0.02   0.01     0.01  -0.01  -0.01
  27   8     0.03  -0.03  -0.00    -0.02  -0.05  -0.00    -0.02  -0.01   0.00
  28   6     0.03  -0.02  -0.02    -0.04   0.01   0.05     0.09   0.11  -0.10
  29   1     0.07   0.06  -0.00    -0.13  -0.11   0.00     0.02   0.02  -0.00
  30   1     0.05  -0.03  -0.03    -0.10   0.06   0.06     0.01  -0.01  -0.01
  31   1    -0.00  -0.00   0.00     0.01   0.00  -0.00     0.00  -0.00  -0.00
  32   1    -0.01   0.01   0.01     0.02  -0.03  -0.02    -0.01   0.01   0.01
  33   1     0.00   0.00   0.00    -0.00  -0.00  -0.00    -0.00  -0.00   0.00
  34   1    -0.00   0.00   0.00    -0.00  -0.00  -0.00    -0.01   0.00   0.00
  35   1     0.01   0.00   0.04    -0.03  -0.00  -0.12     0.10  -0.01   0.26
  36   1    -0.01  -0.01  -0.08     0.04   0.00   0.10    -0.10  -0.03  -0.31
  37   1     0.02   0.00   0.01    -0.08  -0.01  -0.06    -0.03  -0.08   0.10
  38   1    -0.02   0.00  -0.01     0.12   0.05   0.04    -0.01   0.01   0.00
  39   1    -0.01  -0.01   0.01     0.03   0.03  -0.01    -0.24  -0.15   0.19
  40   1    -0.01  -0.01   0.01    -0.02  -0.00   0.00     0.28   0.12  -0.17
  41   1     0.08  -0.05  -0.03    -0.08   0.05   0.03    -0.15   0.03  -0.21
  42   1     0.22  -0.20  -0.03     0.11  -0.19  -0.03     0.05  -0.15  -0.03
  43   1    -0.24   0.45   0.10    -0.12   0.22   0.04     0.01  -0.06  -0.01
  44   1    -0.31  -0.01   0.01    -0.08   0.02   0.01     0.01   0.00   0.01
  45   1     0.40   0.03  -0.03     0.15   0.00  -0.02     0.01  -0.01  -0.01
  46   1     0.02  -0.26  -0.01     0.02  -0.10   0.00     0.02   0.04   0.01
  47   1    -0.13  -0.06  -0.03     0.32   0.14   0.05     0.20   0.10   0.04
  48   1     0.15   0.10   0.02    -0.39  -0.20  -0.07    -0.08  -0.04  -0.04
                     85                     86                     87
                        a                      a                      a 
 Frequencies --  1233.2313              1240.8218              1247.7639
 Red. masses --     1.4982                 1.6890                 2.5556
 Frc consts  --     0.0000                 0.0000                 0.0000
 IR Inten    --     3.2702               189.4243                72.1260
 Raman Activ --     0.0000                 0.0000                 0.0000
 Depolar     --     0.0000                 0.0000                 0.0000
 Atom AN      X      Y      Z        X      Y      Z        X      Y      Z
   1   8    -0.00  -0.00   0.00     0.01  -0.00  -0.01     0.01   0.02   0.01
   2   6    -0.01  -0.01  -0.00     0.00   0.00  -0.00     0.11   0.11   0.04
   3   6     0.03  -0.02  -0.02    -0.04   0.01   0.02    -0.27   0.12   0.16
   4   6     0.00   0.01   0.01    -0.01  -0.01  -0.00    -0.13  -0.15  -0.02
   5   6    -0.02   0.03   0.02     0.02  -0.00  -0.01     0.15  -0.05  -0.08
   6   6    -0.01  -0.02  -0.00    -0.00   0.00   0.00     0.18   0.21   0.02
   7   6     0.02  -0.04  -0.03     0.00   0.00   0.00    -0.01   0.09   0.04
   8   7    -0.07   0.15   0.09    -0.00  -0.00  -0.00    -0.02  -0.09  -0.03
   9   6    -0.10  -0.33  -0.12    -0.00  -0.00   0.00    -0.10   0.02   0.05
  10   6    -0.04   0.10   0.06    -0.00   0.00   0.00    -0.05   0.01   0.02
  11   6    -0.02   0.10   0.05     0.00   0.00   0.00     0.04   0.03  -0.00
  12   6    -0.04   0.10   0.06    -0.00   0.00   0.00     0.00   0.01   0.00
  13   6     0.12   0.14   0.02     0.00   0.00  -0.00     0.03  -0.01  -0.02
  14   6     0.23  -0.16  -0.15     0.00  -0.00  -0.00     0.02   0.00  -0.00
  15  16    -0.02   0.00   0.01    -0.00  -0.00  -0.00     0.00  -0.01  -0.00
  16   8    -0.00   0.01   0.01     0.02  -0.01  -0.01     0.02  -0.16  -0.08
  17   7    -0.01  -0.00   0.01    -0.01   0.01  -0.01     0.29   0.10  -0.26
  18   6     0.01  -0.00  -0.00     0.02  -0.01   0.01    -0.17   0.03   0.10
  19   6    -0.00   0.01  -0.01    -0.03   0.01  -0.01     0.06  -0.05   0.05
  20   6     0.00  -0.00   0.00     0.02  -0.01   0.03    -0.05  -0.03  -0.06
  21   6    -0.00  -0.00  -0.01    -0.02  -0.01  -0.05     0.11   0.02   0.12
  22   7     0.01   0.00   0.00    -0.27  -0.02  -0.03    -0.01  -0.06  -0.01
  23   6     0.00  -0.01   0.00    -0.06   0.26  -0.03    -0.00   0.05  -0.01
  24   6    -0.00   0.00  -0.00     0.03   0.04   0.14     0.03   0.00   0.01
  25   7     0.00   0.00  -0.00    -0.17  -0.22  -0.02    -0.00  -0.01   0.00
  26   6    -0.00   0.00   0.00     0.35  -0.15  -0.05    -0.03   0.02   0.00
  27   8    -0.00  -0.00  -0.00     0.03   0.17   0.01     0.01   0.01   0.00
  28   6     0.01   0.01   0.00     0.02  -0.03   0.02    -0.19  -0.13   0.00
  29   1     0.01   0.01   0.00    -0.01  -0.01   0.00    -0.01  -0.01  -0.00
  30   1     0.00   0.00  -0.00    -0.00   0.00   0.00     0.04  -0.01  -0.02
  31   1     0.44   0.02  -0.15     0.01   0.00  -0.00     0.05   0.00  -0.02
  32   1     0.06  -0.14  -0.08     0.00  -0.00  -0.00     0.05  -0.09  -0.06
  33   1    -0.22  -0.25  -0.03    -0.00  -0.00  -0.00    -0.02  -0.03  -0.01
  34   1    -0.49   0.05   0.20    -0.01   0.00   0.00    -0.03  -0.00   0.01
  35   1    -0.00  -0.00  -0.03    -0.00  -0.01  -0.04     0.00   0.08   0.43
  36   1     0.00   0.00   0.01     0.00  -0.00   0.02    -0.01  -0.00  -0.19
  37   1    -0.00   0.00  -0.01    -0.01  -0.00  -0.02     0.09   0.01   0.07
  38   1     0.01   0.00   0.00     0.04   0.04   0.01    -0.20  -0.06  -0.07
  39   1     0.00   0.00  -0.00    -0.00   0.01   0.02     0.03  -0.01  -0.06
  40   1    -0.01  -0.00   0.00    -0.03  -0.01   0.00     0.02  -0.00  -0.00
  41   1    -0.00   0.00   0.00     0.16  -0.11   0.04    -0.02   0.01  -0.09
  42   1    -0.00   0.01   0.00     0.24  -0.45  -0.09     0.02  -0.03  -0.01
  43   1    -0.00   0.00  -0.00     0.04  -0.13  -0.01    -0.00  -0.00   0.00
  44   1     0.00  -0.00  -0.00    -0.14   0.05   0.01    -0.05  -0.01   0.00
  45   1    -0.00   0.00   0.00     0.12  -0.01  -0.03    -0.01  -0.01  -0.00
  46   1     0.00  -0.00  -0.00     0.00   0.43   0.04    -0.00  -0.01   0.00
  47   1     0.01   0.00   0.00    -0.03  -0.02   0.02    -0.10  -0.05  -0.02
  48   1    -0.01  -0.00  -0.00    -0.00  -0.00  -0.00     0.03   0.02   0.01
                     88                     89                     90
                        a                      a                      a 
 Frequencies --  1255.2773              1266.4076              1271.4342
 Red. masses --     4.5570                 2.2902                 3.8589
 Frc consts  --     0.0000                 0.0000                 0.0000
 IR Inten    --    42.8047               202.8550                87.7196
 Raman Activ --     0.0000                 0.0000                 0.0000
 Depolar     --     0.0000                 0.0000                 0.0000
 Atom AN      X      Y      Z        X      Y      Z        X      Y      Z
   1   8    -0.01   0.03   0.03    -0.03   0.02   0.03    -0.07   0.06   0.10
   2   6    -0.01  -0.01   0.01    -0.10  -0.10  -0.00    -0.15  -0.14  -0.00
   3   6    -0.09  -0.07   0.00     0.28  -0.05  -0.14     0.43  -0.08  -0.22
   4   6     0.15   0.05  -0.04     0.04   0.07   0.02     0.09   0.11   0.02
   5   6    -0.11   0.14   0.10    -0.09  -0.03   0.02    -0.16  -0.04   0.04
   6   6    -0.44  -0.32   0.02     0.10   0.03  -0.02     0.13   0.03  -0.03
   7   6     0.03  -0.20  -0.10    -0.00   0.03   0.02    -0.00   0.04   0.02
   8   7     0.03   0.24   0.09    -0.00  -0.05  -0.02     0.00  -0.05  -0.03
   9   6     0.20  -0.12  -0.13    -0.03   0.04   0.03    -0.04   0.05   0.04
  10   6     0.12  -0.02  -0.05    -0.03   0.00   0.01    -0.04   0.01   0.02
  11   6    -0.10  -0.04   0.02     0.02  -0.00  -0.01     0.03  -0.00  -0.01
  12   6    -0.04  -0.02   0.01     0.02   0.01  -0.00     0.02   0.01  -0.00
  13   6    -0.01   0.05   0.03    -0.01  -0.01  -0.00    -0.02  -0.02   0.00
  14   6     0.00  -0.00  -0.00    -0.01  -0.01  -0.00    -0.01  -0.01  -0.00
  15  16    -0.00   0.00   0.00     0.00   0.00   0.00     0.00   0.01   0.00
  16   8     0.25   0.18  -0.02    -0.17   0.01   0.07    -0.26   0.03   0.11
  17   7     0.22   0.04  -0.20     0.06  -0.03  -0.04     0.24  -0.05  -0.28
  18   6    -0.10   0.03   0.10    -0.02   0.01   0.04    -0.10   0.05   0.13
  19   6     0.02   0.01   0.01    -0.01   0.06  -0.01    -0.01   0.01  -0.02
  20   6    -0.03  -0.03  -0.02    -0.03  -0.05  -0.03    -0.02  -0.02   0.02
  21   6     0.08   0.00   0.07     0.09   0.01   0.14     0.07  -0.04  -0.03
  22   7    -0.00  -0.00  -0.01     0.16  -0.05  -0.03    -0.13   0.11   0.01
  23   6    -0.01   0.01  -0.01    -0.07  -0.13  -0.06     0.01   0.08   0.04
  24   6     0.03   0.01   0.01     0.34   0.22   0.10    -0.22  -0.13  -0.04
  25   7    -0.00  -0.02  -0.00    -0.10  -0.30  -0.05     0.07   0.15   0.02
  26   6    -0.02   0.02   0.00    -0.16   0.09  -0.00     0.09  -0.05   0.00
  27   8     0.00   0.01   0.00     0.02   0.06   0.00    -0.01  -0.03  -0.00
  28   6    -0.14  -0.05   0.03    -0.06   0.04  -0.03    -0.13  -0.02   0.07
  29   1     0.01  -0.02  -0.01     0.02   0.03   0.00     0.04   0.04   0.00
  30   1    -0.03   0.04   0.03     0.01  -0.02  -0.01     0.01  -0.04  -0.02
  31   1    -0.07  -0.01   0.02     0.01   0.00  -0.00     0.01   0.00  -0.00
  32   1    -0.11   0.18   0.12     0.02  -0.03  -0.02     0.02  -0.04  -0.03
  33   1     0.01   0.03   0.01     0.00  -0.00  -0.00     0.00  -0.00  -0.00
  34   1     0.01   0.01   0.00     0.01  -0.00  -0.00     0.01  -0.01  -0.00
  35   1    -0.01   0.04   0.18    -0.01   0.00  -0.00    -0.01   0.02   0.12
  36   1    -0.00   0.00  -0.05     0.01   0.01   0.06     0.01   0.02   0.08
  37   1     0.06   0.02   0.03     0.07   0.04  -0.01     0.03   0.02   0.02
  38   1    -0.11  -0.04  -0.04    -0.06  -0.02  -0.02    -0.04  -0.01  -0.02
  39   1     0.06   0.01  -0.07     0.09   0.03  -0.10     0.05   0.02  -0.05
  40   1    -0.03  -0.02   0.02    -0.09  -0.04   0.08    -0.02  -0.01   0.02
  41   1    -0.03   0.02  -0.06    -0.17   0.08  -0.16     0.07  -0.03   0.03
  42   1     0.02  -0.04  -0.01     0.03  -0.03   0.00     0.02  -0.07  -0.02
  43   1    -0.01  -0.00   0.00    -0.12   0.13   0.04     0.09  -0.14  -0.03
  44   1    -0.05  -0.01   0.00    -0.34  -0.02   0.01     0.20   0.01  -0.01
  45   1    -0.01  -0.01  -0.00    -0.25  -0.04   0.00     0.17   0.02  -0.01
  46   1     0.00   0.01   0.00     0.00   0.18   0.04     0.01  -0.09  -0.02
  47   1     0.05   0.02  -0.01     0.14   0.07  -0.01     0.15   0.06   0.01
  48   1    -0.06  -0.05   0.01    -0.04  -0.03  -0.00    -0.09  -0.09   0.03
                     91                     92                     93
                        a                      a                      a 
 Frequencies --  1282.0922              1301.4097              1302.0253
 Red. masses --     1.6713                 4.0002                 2.9600
 Frc consts  --     0.0000                 0.0000                 0.0000
 IR Inten    --    15.2220                18.1009                22.5870
 Raman Activ --     0.0000                 0.0000                 0.0000
 Depolar     --     0.0000                 0.0000                 0.0000
 Atom AN      X      Y      Z        X      Y      Z        X      Y      Z
   1   8    -0.02   0.02   0.04    -0.01   0.01   0.01    -0.01  -0.00  -0.00
   2   6    -0.01   0.00   0.01    -0.05  -0.05  -0.00     0.04   0.04   0.01
   3   6     0.04  -0.00  -0.02     0.13   0.07  -0.03    -0.01   0.05   0.03
   4   6     0.02  -0.00  -0.01    -0.11  -0.04   0.03    -0.08  -0.05   0.01
   5   6    -0.04  -0.00   0.01     0.10  -0.12  -0.09     0.08  -0.05  -0.05
   6   6     0.00   0.01   0.00     0.22   0.21   0.01     0.10   0.11   0.01
   7   6    -0.00  -0.01  -0.00    -0.10   0.03   0.05    -0.04   0.02   0.02
   8   7    -0.00   0.01   0.00    -0.31   0.12   0.16    -0.14   0.05   0.07
   9   6     0.01  -0.01  -0.00     0.23  -0.33  -0.23     0.10  -0.15  -0.10
  10   6     0.00   0.00  -0.00     0.28   0.03  -0.09     0.13   0.01  -0.04
  11   6    -0.00  -0.00  -0.00    -0.13  -0.04   0.03    -0.06  -0.01   0.02
  12   6    -0.00   0.00   0.00    -0.13  -0.09   0.01    -0.07  -0.05   0.00
  13   6    -0.00   0.00   0.00     0.06   0.08   0.02     0.03   0.04   0.00
  14   6     0.00  -0.00  -0.00     0.02   0.08   0.03     0.01   0.04   0.02
  15  16     0.00   0.00   0.00     0.01  -0.00  -0.00     0.01  -0.00  -0.00
  16   8    -0.02   0.00   0.01    -0.14  -0.09   0.01    -0.03  -0.05  -0.01
  17   7     0.13   0.02  -0.21     0.02   0.00  -0.01    -0.06  -0.04   0.03
  18   6    -0.04   0.02   0.09    -0.00   0.01  -0.04     0.00  -0.03   0.02
  19   6     0.02  -0.14  -0.03    -0.05  -0.03  -0.00     0.08   0.08   0.00
  20   6     0.01   0.16   0.13     0.03  -0.02  -0.01    -0.07   0.04   0.02
  21   6    -0.09  -0.08  -0.38    -0.15   0.16   0.03     0.34  -0.35  -0.06
  22   7     0.06   0.13   0.02     0.03  -0.21  -0.01    -0.07   0.47   0.02
  23   6    -0.02  -0.18  -0.02     0.04   0.06  -0.00    -0.09  -0.13   0.01
  24   6     0.12   0.10   0.04     0.00   0.01  -0.00    -0.01  -0.01   0.01
  25   7    -0.02  -0.12  -0.03    -0.04   0.01   0.00     0.09  -0.03  -0.00
  26   6    -0.06   0.02   0.00     0.05  -0.03  -0.01    -0.10   0.05   0.01
  27   8    -0.00   0.01  -0.00     0.01   0.02   0.00    -0.03  -0.04  -0.00
  28   6    -0.00  -0.05   0.18     0.05  -0.01   0.01    -0.10   0.04  -0.03
  29   1     0.01   0.00  -0.00    -0.00   0.02   0.01    -0.00   0.01   0.00
  30   1     0.01  -0.01  -0.01    -0.02  -0.01   0.00    -0.01   0.00   0.00
  31   1    -0.00   0.00   0.00    -0.08   0.00   0.03    -0.04   0.00   0.01
  32   1    -0.00   0.01   0.00    -0.14   0.25   0.16    -0.06   0.11   0.07
  33   1     0.00   0.00   0.00     0.03   0.08   0.02     0.01   0.03   0.01
  34   1    -0.00   0.00   0.00     0.04   0.03  -0.00     0.02   0.01  -0.00
  35   1     0.00   0.01   0.09     0.02   0.00   0.09    -0.03  -0.01  -0.14
  36   1    -0.01  -0.01  -0.06     0.01   0.01   0.03     0.02   0.00   0.05
  37   1    -0.19  -0.09   0.03     0.05   0.01   0.02    -0.10  -0.02  -0.06
  38   1     0.11   0.06   0.02     0.04   0.01   0.02    -0.05  -0.01  -0.02
  39   1    -0.09  -0.04   0.10    -0.04   0.01   0.05     0.10  -0.00  -0.12
  40   1     0.22   0.12  -0.15     0.05   0.01  -0.07    -0.12  -0.04   0.17
  41   1     0.08   0.08   0.54     0.04  -0.03  -0.03    -0.08   0.05   0.04
  42   1    -0.02   0.02   0.01    -0.03   0.08   0.01     0.06  -0.18  -0.03
  43   1    -0.08   0.14   0.02    -0.02   0.05   0.01     0.04  -0.11  -0.03
  44   1    -0.10  -0.00   0.01     0.02   0.01  -0.00    -0.02  -0.03   0.01
  45   1    -0.10  -0.01   0.00     0.00   0.01   0.01     0.00  -0.02  -0.02
  46   1     0.01   0.06   0.01    -0.01   0.03  -0.00     0.02  -0.06   0.00
  47   1    -0.14  -0.08  -0.05     0.04   0.02   0.03    -0.07  -0.02  -0.06
  48   1    -0.05  -0.04   0.03    -0.10  -0.03  -0.04     0.24   0.06   0.09
                     94                     95                     96
                        a                      a                      a 
 Frequencies --  1318.3348              1328.4501              1333.8255
 Red. masses --     1.2612                 1.3951                 1.5330
 Frc consts  --     0.0000                 0.0000                 0.0000
 IR Inten    --     3.7732                16.0218                 1.9866
 Raman Activ --     0.0000                 0.0000                 0.0000
 Depolar     --     0.0000                 0.0000                 0.0000
 Atom AN      X      Y      Z        X      Y      Z        X      Y      Z
   1   8     0.00   0.00   0.00    -0.01  -0.00   0.00     0.01  -0.00  -0.01
   2   6    -0.01  -0.03  -0.01     0.08   0.06   0.02    -0.03  -0.02   0.01
   3   6    -0.01  -0.00   0.00    -0.04   0.03   0.03     0.02   0.00  -0.01
   4   6    -0.03   0.00   0.01     0.01  -0.04  -0.02     0.01   0.01   0.00
   5   6     0.04  -0.00  -0.01    -0.01   0.00   0.01    -0.01  -0.00   0.00
   6   6     0.02   0.00  -0.00    -0.04   0.00   0.02     0.00   0.00   0.00
   7   6    -0.00   0.01   0.01     0.01  -0.02  -0.01    -0.00   0.00   0.00
   8   7    -0.02  -0.00   0.00     0.03   0.01  -0.01    -0.02  -0.00   0.01
   9   6     0.00  -0.01  -0.01    -0.01   0.02   0.01     0.05   0.04   0.00
  10   6     0.01   0.00  -0.00    -0.01  -0.00   0.00    -0.02   0.00   0.01
  11   6    -0.00   0.00   0.00     0.00   0.00   0.00     0.01  -0.05  -0.03
  12   6    -0.01  -0.01  -0.00     0.01   0.00   0.00     0.02   0.05   0.01
  13   6     0.00   0.00  -0.00     0.00  -0.00  -0.00    -0.03   0.01   0.02
  14   6    -0.00   0.01   0.00    -0.00  -0.01  -0.00     0.02  -0.05  -0.03
  15  16     0.00  -0.00  -0.00    -0.00  -0.00  -0.00    -0.00   0.00   0.00
  16   8     0.01   0.00   0.00     0.02  -0.01  -0.01    -0.01   0.00   0.00
  17   7     0.01   0.02   0.04    -0.01  -0.06   0.05     0.05   0.03  -0.02
  18   6     0.02   0.03   0.25     0.00  -0.01  -0.25    -0.10  -0.07  -0.10
  19   6     0.11  -0.01   0.01    -0.23  -0.02  -0.05     0.30   0.15   0.18
  20   6     0.10   0.01  -0.10    -0.02  -0.04   0.08     0.03  -0.01  -0.16
  21   6    -0.09   0.09  -0.08     0.00   0.01  -0.04    -0.06  -0.02   0.09
  22   7    -0.03  -0.01   0.00    -0.09   0.19   0.01    -0.16   0.15   0.01
  23   6     0.04  -0.06  -0.01     0.05  -0.18  -0.02     0.09  -0.19  -0.03
  24   6     0.00   0.03   0.00     0.00   0.06   0.01    -0.04   0.08   0.03
  25   7    -0.02  -0.03  -0.01     0.00  -0.08  -0.02     0.00  -0.13  -0.03
  26   6     0.04  -0.03  -0.01     0.03  -0.04  -0.01     0.07  -0.06  -0.02
  27   8     0.01   0.02   0.00     0.00   0.03   0.00     0.01   0.07   0.01
  28   6    -0.25  -0.13  -0.06    -0.19  -0.09  -0.07     0.08   0.00   0.02
  29   1    -0.01   0.00   0.00     0.01  -0.00  -0.01    -0.00  -0.00  -0.00
  30   1    -0.01   0.01   0.01     0.01  -0.00  -0.00    -0.00  -0.00  -0.00
  31   1    -0.00   0.00   0.00     0.00  -0.00  -0.00    -0.02   0.00   0.01
  32   1    -0.00   0.01   0.00     0.01  -0.01  -0.01    -0.01   0.02   0.01
  33   1     0.00   0.00   0.00    -0.00  -0.01  -0.00    -0.01  -0.01   0.00
  34   1     0.00   0.00  -0.00    -0.00  -0.00   0.00    -0.02   0.00   0.01
  35   1    -0.08  -0.00  -0.31     0.11  -0.02   0.33    -0.04   0.03   0.04
  36   1    -0.10  -0.05  -0.39     0.10   0.05   0.29     0.06   0.03   0.22
  37   1     0.04   0.01   0.04     0.14   0.06   0.05    -0.31  -0.09  -0.14
  38   1    -0.21  -0.06  -0.09     0.26   0.04   0.12    -0.29  -0.14  -0.07
  39   1    -0.13  -0.04   0.13     0.10   0.07  -0.07    -0.18  -0.10   0.13
  40   1    -0.10  -0.04   0.07     0.00  -0.00  -0.01    -0.08  -0.04   0.07
  41   1     0.17  -0.06   0.16     0.28  -0.18  -0.01     0.19  -0.19  -0.13
  42   1    -0.05   0.10   0.02    -0.07   0.14   0.03    -0.08   0.19   0.04
  43   1    -0.04   0.08   0.02    -0.07   0.14   0.03    -0.09   0.21   0.03
  44   1     0.03   0.02  -0.00     0.05   0.03   0.00     0.11   0.05   0.00
  45   1    -0.00   0.01   0.01     0.00   0.02   0.01     0.05   0.03   0.01
  46   1    -0.00   0.04   0.00     0.01   0.06   0.01     0.02   0.11   0.02
  47   1     0.43   0.17   0.13     0.29   0.12   0.10    -0.14  -0.06  -0.01
  48   1     0.28   0.11   0.08     0.25   0.08   0.07    -0.12  -0.05  -0.04
                     97                     98                     99
                        a                      a                      a 
 Frequencies --  1335.0081              1338.1694              1349.0447
 Red. masses --     5.5353                 1.4268                 1.4846
 Frc consts  --     0.0000                 0.0000                 0.0000
 IR Inten    --    18.0130                 7.8676                 1.1979
 Raman Activ --     0.0000                 0.0000                 0.0000
 Depolar     --     0.0000                 0.0000                 0.0000
 Atom AN      X      Y      Z        X      Y      Z        X      Y      Z
   1   8    -0.00   0.00   0.00     0.01  -0.00  -0.01     0.00  -0.00  -0.00
   2   6     0.00   0.00   0.00    -0.03  -0.01  -0.00    -0.01  -0.02  -0.00
   3   6    -0.01  -0.03  -0.01     0.01  -0.01  -0.01     0.00  -0.01  -0.01
   4   6     0.05   0.03  -0.01    -0.02   0.01   0.01    -0.02   0.00   0.01
   5   6    -0.06   0.03   0.03     0.02  -0.00  -0.01     0.02   0.01  -0.01
   6   6    -0.01  -0.05  -0.01     0.02   0.00  -0.01    -0.00  -0.01  -0.00
   7   6     0.01  -0.04  -0.02    -0.00   0.01   0.01     0.00   0.00   0.00
   8   7     0.16   0.02  -0.05    -0.02  -0.00   0.00    -0.00  -0.00  -0.00
   9   6    -0.34  -0.28  -0.00     0.01   0.00  -0.00    -0.00  -0.00  -0.00
  10   6     0.16  -0.00  -0.06    -0.00   0.00   0.00    -0.00   0.00   0.00
  11   6    -0.04   0.38   0.18     0.00  -0.01  -0.01     0.00   0.00   0.00
  12   6    -0.15  -0.35  -0.10     0.00   0.01   0.00    -0.00  -0.00  -0.00
  13   6     0.23  -0.06  -0.11    -0.01   0.00   0.00     0.00  -0.00  -0.00
  14   6    -0.17   0.38   0.23     0.01  -0.01  -0.01    -0.00   0.00   0.00
  15  16     0.00  -0.01  -0.01     0.00   0.00   0.00     0.00  -0.00  -0.00
  16   8     0.01   0.02   0.01    -0.01   0.00   0.00     0.00   0.01   0.00
  17   7     0.01  -0.01  -0.02    -0.01   0.04  -0.05     0.00   0.01   0.06
  18   6    -0.01  -0.00  -0.00     0.07   0.06   0.24    -0.05  -0.07  -0.01
  19   6     0.03   0.02   0.02    -0.09  -0.06  -0.15     0.28   0.05   0.00
  20   6     0.00  -0.01  -0.02    -0.13  -0.10   0.16    -0.36  -0.09   0.25
  21   6    -0.01  -0.00   0.02     0.04  -0.05   0.09     0.08   0.14   0.02
  22   7    -0.03   0.03   0.00    -0.14   0.21   0.01    -0.00  -0.11  -0.00
  23   6     0.01  -0.03  -0.01     0.06  -0.18  -0.02     0.01   0.05   0.00
  24   6    -0.01   0.01   0.00    -0.04   0.07   0.02    -0.01  -0.01   0.00
  25   7     0.00  -0.02  -0.01     0.02  -0.12  -0.03    -0.01   0.01   0.00
  26   6     0.01  -0.01  -0.00     0.03  -0.04  -0.01     0.00  -0.00  -0.00
  27   8     0.00   0.01   0.00     0.01   0.05   0.00     0.01   0.02   0.00
  28   6     0.02   0.01   0.01     0.11   0.05   0.05    -0.11  -0.05  -0.05
  29   1    -0.00  -0.01  -0.00    -0.01   0.00   0.00    -0.00   0.01   0.00
  30   1     0.01  -0.01  -0.01    -0.00   0.00   0.00    -0.00   0.01   0.00
  31   1     0.16  -0.00  -0.06    -0.01   0.00   0.00     0.00   0.00  -0.00
  32   1     0.08  -0.12  -0.08    -0.01   0.01   0.01     0.00  -0.00  -0.00
  33   1     0.06   0.04  -0.00    -0.00   0.00   0.00     0.00   0.00  -0.00
  34   1     0.17  -0.02  -0.07    -0.00   0.00   0.00     0.00  -0.00  -0.00
  35   1    -0.01   0.00  -0.01    -0.03  -0.01  -0.22    -0.04  -0.00  -0.09
  36   1     0.00   0.00   0.03    -0.10  -0.05  -0.34     0.05   0.00   0.05
  37   1    -0.03  -0.01  -0.02     0.22   0.07   0.11    -0.34  -0.12  -0.12
  38   1    -0.03  -0.02  -0.01     0.10   0.06  -0.00    -0.04   0.04  -0.06
  39   1    -0.02  -0.01   0.01     0.19   0.05  -0.19     0.18   0.02  -0.21
  40   1    -0.01  -0.01   0.00     0.07   0.01  -0.14     0.40   0.15  -0.37
  41   1     0.03  -0.03  -0.03     0.20  -0.20  -0.24    -0.03   0.02  -0.14
  42   1    -0.01   0.03   0.01    -0.08   0.17   0.03     0.02  -0.01   0.00
  43   1    -0.02   0.04   0.01    -0.07   0.14   0.03     0.02  -0.00  -0.01
  44   1     0.02   0.01   0.00     0.11   0.04   0.00     0.00   0.00  -0.00
  45   1     0.01   0.01   0.00     0.04   0.03   0.01     0.01   0.00  -0.00
  46   1     0.00   0.02   0.00     0.02   0.08   0.02    -0.00   0.01   0.00
  47   1    -0.02  -0.01  -0.01    -0.23  -0.10  -0.09     0.18   0.08   0.04
  48   1    -0.03  -0.02  -0.01    -0.16  -0.05  -0.05     0.13   0.07   0.02
                    100                    101                    102
                        a                      a                      a 
 Frequencies --  1361.8409              1378.3995              1398.2186
 Red. masses --     1.8400                 5.6784                 2.1226
 Frc consts  --     0.0000                 0.0000                 0.0000
 IR Inten    --   126.9998                 5.4264               243.0426
 Raman Activ --     0.0000                 0.0000                 0.0000
 Depolar     --     0.0000                 0.0000                 0.0000
 Atom AN      X      Y      Z        X      Y      Z        X      Y      Z
   1   8    -0.00  -0.00  -0.00    -0.02   0.00   0.01    -0.01   0.01   0.02
   2   6     0.01  -0.00  -0.00    -0.03   0.00   0.01     0.02   0.01  -0.01
   3   6    -0.00   0.00   0.00     0.21  -0.16  -0.16    -0.00   0.01   0.00
   4   6    -0.01  -0.01   0.00    -0.55  -0.06   0.18    -0.01  -0.01   0.00
   5   6     0.01   0.00  -0.00     0.54   0.17  -0.13     0.01   0.00  -0.00
   6   6    -0.01  -0.00   0.00    -0.16  -0.23  -0.04    -0.01   0.00   0.00
   7   6    -0.00  -0.00  -0.00     0.01   0.03   0.01    -0.01  -0.00   0.00
   8   7     0.01   0.00  -0.00     0.04  -0.00  -0.02     0.01   0.00  -0.00
   9   6    -0.00   0.00   0.00    -0.01  -0.01  -0.00    -0.00   0.01   0.01
  10   6    -0.00  -0.00   0.00    -0.05   0.00   0.02     0.01  -0.01  -0.01
  11   6     0.00   0.00   0.00     0.02   0.03   0.00    -0.01   0.00   0.00
  12   6     0.00  -0.00  -0.00     0.03  -0.01  -0.01    -0.01   0.00   0.00
  13   6    -0.00  -0.00  -0.00    -0.04  -0.02   0.00     0.02  -0.00  -0.01
  14   6    -0.00   0.00   0.00    -0.00   0.04   0.02    -0.01  -0.01  -0.00
  15  16    -0.00  -0.00  -0.00    -0.00  -0.00   0.00     0.00  -0.00  -0.00
  16   8     0.00   0.00  -0.00    -0.02   0.11   0.06     0.00   0.00  -0.00
  17   7    -0.01   0.01   0.03     0.03   0.04  -0.00     0.01  -0.02  -0.04
  18   6     0.01  -0.00  -0.02    -0.01  -0.01  -0.02    -0.01   0.00   0.01
  19   6    -0.04  -0.02  -0.01    -0.01  -0.00   0.00     0.04   0.01   0.02
  20   6     0.01   0.03  -0.01     0.01   0.01  -0.01    -0.01  -0.03   0.01
  21   6     0.09  -0.02  -0.02    -0.00  -0.01  -0.01    -0.24   0.10   0.03
  22   7     0.04  -0.18  -0.00    -0.01   0.01   0.00     0.50   0.13  -0.03
  23   6     0.05   0.05   0.01    -0.00  -0.00  -0.00    -0.20   0.04   0.02
  24   6    -0.27   0.13   0.08     0.00  -0.00  -0.00    -0.04   0.04   0.02
  25   7     0.10  -0.45  -0.10    -0.00   0.01   0.00     0.07  -0.12  -0.03
  26   6    -0.29   0.12  -0.00     0.01  -0.00  -0.00    -0.35   0.16   0.02
  27   8     0.08   0.12   0.00    -0.00  -0.00  -0.00    -0.01  -0.07  -0.00
  28   6    -0.02   0.00  -0.00    -0.00  -0.01   0.01     0.01  -0.01   0.01
  29   1     0.00   0.00   0.00     0.04   0.20   0.07     0.00   0.00   0.00
  30   1    -0.00   0.00   0.00    -0.07   0.17   0.10    -0.00   0.00   0.00
  31   1     0.00  -0.00  -0.00     0.04  -0.00  -0.01    -0.01  -0.00   0.00
  32   1     0.00  -0.00  -0.00     0.02  -0.03  -0.02    -0.00   0.00   0.00
  33   1     0.00  -0.00  -0.00     0.01   0.00  -0.00    -0.01  -0.01  -0.00
  34   1     0.00  -0.00  -0.00     0.04  -0.01  -0.02    -0.01   0.00   0.00
  35   1     0.01   0.00   0.03     0.01   0.01   0.07    -0.01   0.01  -0.02
  36   1     0.00  -0.00  -0.01     0.02   0.00   0.00    -0.01  -0.00   0.02
  37   1     0.02   0.01   0.02     0.01   0.00   0.01    -0.02  -0.01  -0.03
  38   1     0.03   0.00   0.01     0.01  -0.00   0.01    -0.03   0.02  -0.02
  39   1     0.01   0.01  -0.00    -0.01  -0.00   0.01    -0.02  -0.01   0.02
  40   1    -0.00   0.00   0.04    -0.01  -0.00   0.01    -0.00  -0.00  -0.02
  41   1    -0.24   0.20   0.09     0.00   0.00   0.01     0.40  -0.32  -0.09
  42   1     0.03   0.07   0.03     0.00   0.00   0.00     0.15  -0.21  -0.00
  43   1     0.04   0.06  -0.03    -0.00  -0.00  -0.00     0.12  -0.22  -0.08
  44   1     0.42   0.10   0.02    -0.01  -0.00  -0.00     0.06  -0.05   0.02
  45   1     0.34   0.08  -0.03    -0.01  -0.00   0.00     0.05  -0.03  -0.05
  46   1     0.08   0.24   0.08    -0.00  -0.00  -0.00     0.03  -0.01   0.03
  47   1     0.02   0.01  -0.03    -0.03  -0.01   0.00    -0.02  -0.00   0.03
  48   1     0.04   0.04   0.00     0.00   0.00   0.00    -0.03  -0.03  -0.00
                    103                    104                    105
                        a                      a                      a 
 Frequencies --  1400.1252              1416.0274              1438.4135
 Red. masses --     3.2742                 4.2756                 1.0980
 Frc consts  --     0.0000                 0.0000                 0.0000
 IR Inten    --     0.2678               162.5400                 9.8964
 Raman Activ --     0.0000                 0.0000                 0.0000
 Depolar     --     0.0000                 0.0000                 0.0000
 Atom AN      X      Y      Z        X      Y      Z        X      Y      Z
   1   8     0.02  -0.01  -0.02    -0.14   0.07   0.16    -0.02   0.01   0.03
   2   6    -0.02  -0.02   0.00     0.30   0.26   0.01     0.04   0.01  -0.03
   3   6    -0.04  -0.02   0.01     0.01   0.18   0.07    -0.03  -0.04  -0.01
   4   6     0.06   0.03  -0.01    -0.09  -0.19  -0.05     0.00   0.03   0.01
   5   6    -0.06   0.02   0.03     0.08  -0.06  -0.05    -0.00   0.02   0.01
   6   6     0.02  -0.01  -0.01    -0.12   0.10   0.09     0.03  -0.03  -0.02
   7   6     0.08   0.03  -0.02     0.00  -0.05  -0.02     0.01   0.02   0.01
   8   7    -0.12   0.04   0.06     0.04   0.04   0.01    -0.01  -0.01  -0.00
   9   6     0.07  -0.32  -0.17     0.03  -0.02  -0.02    -0.02  -0.00   0.00
  10   6    -0.34   0.13   0.18    -0.07   0.00   0.02     0.01   0.01   0.00
  11   6     0.22  -0.03  -0.09     0.02   0.01  -0.00     0.01  -0.01  -0.01
  12   6     0.16  -0.06  -0.08     0.04   0.00  -0.01    -0.02  -0.01   0.00
  13   6    -0.46  -0.01   0.16    -0.07  -0.01   0.02     0.01   0.01   0.00
  14   6     0.19   0.18   0.01     0.02   0.02   0.00     0.01  -0.01  -0.01
  15  16    -0.00  -0.00   0.00     0.00  -0.01  -0.00    -0.00   0.00   0.00
  16   8     0.01  -0.01  -0.01     0.03  -0.02  -0.02     0.00   0.00   0.00
  17   7     0.01   0.06   0.04    -0.13  -0.53  -0.35    -0.02  -0.03   0.02
  18   6    -0.00  -0.01  -0.02    -0.01   0.12   0.14    -0.06   0.02  -0.01
  19   6    -0.00  -0.00   0.00     0.01   0.03   0.00    -0.00   0.01   0.01
  20   6    -0.00   0.00   0.00    -0.00  -0.01  -0.01     0.02   0.01  -0.01
  21   6    -0.01   0.00   0.00     0.00   0.03   0.01    -0.01  -0.01   0.02
  22   7     0.02   0.01  -0.00    -0.02  -0.03  -0.00    -0.01   0.02   0.00
  23   6    -0.01   0.00   0.00     0.01  -0.00  -0.00    -0.04  -0.01   0.01
  24   6    -0.00   0.00   0.00    -0.00   0.00   0.00     0.00  -0.00  -0.00
  25   7     0.00  -0.00  -0.00    -0.00  -0.01  -0.00    -0.00   0.02   0.00
  26   6    -0.02   0.01   0.00     0.01  -0.01  -0.00     0.02  -0.01   0.00
  27   8    -0.00  -0.00  -0.00     0.01   0.01   0.00    -0.00  -0.00  -0.00
  28   6    -0.01  -0.02  -0.01     0.05   0.12   0.04    -0.01  -0.13   0.23
  29   1    -0.01  -0.02  -0.00     0.04   0.01  -0.01    -0.01   0.00   0.00
  30   1     0.01  -0.01  -0.01    -0.00  -0.01  -0.00     0.00   0.00   0.00
  31   1     0.27   0.04  -0.08     0.04  -0.00  -0.01    -0.00   0.00   0.00
  32   1     0.07  -0.02  -0.04     0.02  -0.03  -0.02    -0.00   0.01   0.01
  33   1     0.16   0.13   0.00     0.01   0.00  -0.00     0.00   0.01   0.00
  34   1     0.31  -0.01  -0.12     0.04  -0.00  -0.02    -0.00   0.00   0.00
  35   1     0.00   0.01   0.03     0.02  -0.08  -0.20     0.08  -0.12  -0.01
  36   1     0.01  -0.00  -0.02    -0.02   0.02   0.17     0.14   0.04  -0.01
  37   1     0.00  -0.00  -0.00    -0.02   0.00   0.01    -0.00   0.00   0.00
  38   1     0.00   0.00  -0.00    -0.01  -0.02   0.00    -0.01  -0.01   0.00
  39   1    -0.00   0.00   0.00    -0.00   0.00   0.00    -0.01  -0.03   0.00
  40   1    -0.00   0.00   0.00    -0.00  -0.00  -0.01    -0.03  -0.01  -0.00
  41   1     0.02  -0.02  -0.00    -0.03   0.03  -0.01     0.02  -0.02  -0.00
  42   1     0.01  -0.01  -0.00    -0.00   0.02   0.01     0.07   0.02   0.04
  43   1     0.01  -0.01  -0.00    -0.01   0.04   0.01     0.06   0.00  -0.06
  44   1     0.00  -0.00   0.00     0.00   0.01  -0.00    -0.01  -0.01   0.00
  45   1     0.00  -0.00  -0.00     0.00   0.00   0.00    -0.01  -0.01  -0.01
  46   1     0.00  -0.00   0.00     0.00   0.01   0.00    -0.00  -0.01  -0.00
  47   1    -0.02  -0.01   0.00     0.18   0.08  -0.01     0.22  -0.03  -0.60
  48   1     0.02   0.02   0.00    -0.17  -0.13  -0.01    -0.17   0.57  -0.29
                    106                    107                    108
                        a                      a                      a 
 Frequencies --  1444.8303              1456.6199              1463.7313
 Red. masses --     4.8695                 3.5335                 1.2749
 Frc consts  --     0.0000                 0.0000                 0.0000
 IR Inten    --    94.2144                37.9284                14.0732
 Raman Activ --     0.0000                 0.0000                 0.0000
 Depolar     --     0.0000                 0.0000                 0.0000
 Atom AN      X      Y      Z        X      Y      Z        X      Y      Z
   1   8     0.03  -0.00  -0.03    -0.01  -0.00   0.01     0.03  -0.01  -0.03
   2   6    -0.17  -0.17  -0.01     0.09   0.10   0.01    -0.10  -0.09   0.01
   3   6     0.25   0.34   0.05    -0.17  -0.24  -0.04     0.11   0.15   0.02
   4   6    -0.00  -0.19  -0.08     0.03   0.16   0.06    -0.00  -0.08  -0.03
   5   6     0.03  -0.19  -0.09    -0.03   0.09   0.05     0.02  -0.09  -0.04
   6   6    -0.27   0.23   0.20     0.18  -0.11  -0.12    -0.12   0.10   0.09
   7   6    -0.05  -0.15  -0.05     0.05   0.11   0.03    -0.03  -0.08  -0.02
   8   7     0.07   0.12   0.03    -0.25  -0.07   0.06     0.11   0.05  -0.02
   9   6     0.25   0.03  -0.08     0.35   0.00  -0.12    -0.09   0.01   0.03
  10   6    -0.09  -0.14  -0.03    -0.04  -0.16  -0.06     0.01   0.03   0.01
  11   6    -0.14   0.14   0.11    -0.19   0.12   0.12     0.04  -0.02  -0.02
  12   6     0.22   0.13  -0.02     0.25   0.19  -0.00    -0.05  -0.05  -0.00
  13   6    -0.05  -0.15  -0.05     0.00  -0.20  -0.09    -0.01   0.05   0.02
  14   6    -0.15   0.11   0.10    -0.21   0.16   0.15     0.05  -0.04  -0.04
  15  16     0.02  -0.01  -0.01     0.01   0.01  -0.00    -0.00  -0.01  -0.00
  16   8     0.00  -0.03  -0.02    -0.01   0.01   0.01     0.01  -0.01  -0.01
  17   7     0.02   0.12   0.10    -0.01  -0.05  -0.04    -0.00   0.08   0.05
  18   6     0.04  -0.04  -0.04    -0.09   0.04   0.03    -0.23   0.07   0.06
  19   6    -0.00  -0.01   0.00     0.00   0.01  -0.01     0.00   0.01  -0.01
  20   6     0.00   0.01   0.01    -0.01  -0.02  -0.02    -0.02  -0.05  -0.04
  21   6    -0.00  -0.01   0.00    -0.00   0.00  -0.00    -0.01  -0.00  -0.00
  22   7    -0.00   0.01   0.00     0.00  -0.00  -0.00     0.01   0.00   0.00
  23   6    -0.01  -0.00   0.00     0.00   0.00  -0.00     0.00   0.00   0.00
  24   6     0.00  -0.00  -0.00    -0.00   0.00   0.00    -0.00  -0.00  -0.00
  25   7    -0.00   0.01   0.00     0.00  -0.01  -0.00     0.00  -0.00   0.00
  26   6     0.01  -0.00   0.00    -0.01   0.00  -0.00    -0.00   0.00  -0.00
  27   8    -0.00  -0.00  -0.00     0.00   0.00   0.00    -0.00  -0.00   0.00
  28   6    -0.00  -0.03   0.02     0.00   0.02  -0.01     0.02   0.02  -0.04
  29   1     0.05  -0.01  -0.03    -0.04   0.00   0.02     0.02  -0.01  -0.01
  30   1    -0.05  -0.04   0.00     0.02   0.02   0.00    -0.02  -0.01   0.00
  31   1     0.04  -0.04  -0.04     0.01  -0.05  -0.03     0.00   0.01   0.00
  32   1     0.05  -0.17  -0.09     0.03  -0.17  -0.09    -0.00   0.03   0.02
  33   1    -0.08  -0.15  -0.04    -0.11  -0.20  -0.05     0.03   0.05   0.01
  34   1     0.01  -0.05  -0.02    -0.02  -0.06  -0.02     0.01   0.01   0.00
  35   1    -0.06   0.10   0.03     0.12  -0.19  -0.03     0.30  -0.48  -0.05
  36   1    -0.09  -0.03  -0.02     0.21   0.06  -0.05     0.55   0.15  -0.19
  37   1     0.01   0.00  -0.01    -0.01  -0.00   0.02    -0.01  -0.00   0.02
  38   1     0.00   0.02  -0.01    -0.00  -0.02   0.01    -0.01  -0.03  -0.00
  39   1     0.00  -0.02  -0.01    -0.01   0.05   0.02    -0.02   0.16   0.05
  40   1    -0.02  -0.00  -0.02     0.03   0.01   0.04     0.10   0.02   0.12
  41   1     0.00  -0.01  -0.00     0.00   0.00   0.00     0.00  -0.01  -0.00
  42   1     0.01   0.00   0.01    -0.01  -0.01  -0.01    -0.01  -0.01  -0.01
  43   1     0.02  -0.01  -0.01    -0.01   0.00   0.01    -0.00  -0.01   0.01
  44   1    -0.00  -0.01   0.00     0.00   0.00  -0.00    -0.00   0.00  -0.00
  45   1    -0.00  -0.00  -0.00     0.00   0.00   0.00     0.00   0.00   0.00
  46   1    -0.00  -0.00  -0.00     0.00   0.00   0.00     0.00  -0.00   0.00
  47   1    -0.01  -0.02  -0.08    -0.01   0.01   0.05    -0.07  -0.01   0.09
  48   1     0.01   0.11  -0.04    -0.00  -0.06   0.02     0.03  -0.08   0.04
                    109                    110                    111
                        a                      a                      a 
 Frequencies --  1472.7083              1479.5548              1484.3168
 Red. masses --     1.0950                 1.0903                 1.1005
 Frc consts  --     0.0000                 0.0000                 0.0000
 IR Inten    --    10.7978                10.0825                 1.4159
 Raman Activ --     0.0000                 0.0000                 0.0000
 Depolar     --     0.0000                 0.0000                 0.0000
 Atom AN      X      Y      Z        X      Y      Z        X      Y      Z
   1   8     0.00   0.00  -0.00    -0.01   0.01   0.01     0.00  -0.00  -0.00
   2   6    -0.01  -0.01  -0.00     0.02   0.00  -0.01    -0.01  -0.00  -0.00
   3   6     0.01   0.01   0.00    -0.00  -0.00  -0.00    -0.00  -0.00  -0.00
   4   6     0.00  -0.00  -0.00    -0.00  -0.00   0.00     0.00   0.00   0.00
   5   6     0.00  -0.01  -0.00     0.00   0.00   0.00    -0.00   0.00   0.00
   6   6    -0.01   0.01   0.01     0.00  -0.00  -0.00     0.00   0.00  -0.00
   7   6    -0.00  -0.01  -0.00     0.00   0.00   0.00     0.00   0.00   0.00
   8   7     0.01   0.01  -0.00    -0.00  -0.00   0.00    -0.00  -0.00   0.00
   9   6    -0.00   0.00   0.00     0.00  -0.00  -0.00     0.00  -0.00  -0.00
  10   6     0.00   0.00   0.00    -0.00  -0.00  -0.00    -0.00   0.00   0.00
  11   6     0.00   0.00  -0.00    -0.00  -0.00   0.00     0.00  -0.00  -0.00
  12   6    -0.00  -0.00  -0.00     0.00   0.00   0.00    -0.00   0.00   0.00
  13   6    -0.00   0.00   0.00     0.00  -0.00  -0.00     0.00  -0.00  -0.00
  14   6     0.00  -0.00  -0.00    -0.00   0.00   0.00     0.00   0.00   0.00
  15  16    -0.00  -0.00  -0.00     0.00   0.00   0.00     0.00  -0.00  -0.00
  16   8     0.00  -0.00  -0.00    -0.00   0.00   0.00    -0.00  -0.00   0.00
  17   7    -0.01   0.01   0.02     0.00  -0.01  -0.01    -0.00   0.00   0.01
  18   6    -0.02   0.01  -0.01     0.03  -0.01   0.00     0.06  -0.01  -0.01
  19   6     0.02   0.11  -0.12    -0.00  -0.06   0.07     0.03   0.12  -0.18
  20   6     0.06   0.11   0.08    -0.06  -0.10  -0.08    -0.09  -0.13  -0.11
  21   6    -0.01   0.01   0.02    -0.01  -0.01  -0.01    -0.01  -0.01   0.00
  22   7     0.07   0.01  -0.01     0.06   0.04  -0.00    -0.01   0.01   0.00
  23   6     0.12   0.08  -0.03     0.15   0.07  -0.03    -0.02  -0.00   0.00
  24   6     0.00  -0.05  -0.01     0.02  -0.09  -0.03    -0.00   0.03   0.01
  25   7     0.01  -0.04  -0.01     0.01  -0.05  -0.01    -0.00   0.02   0.00
  26   6    -0.06   0.03   0.00    -0.06   0.03   0.00     0.01  -0.01  -0.00
  27   8     0.00  -0.01  -0.00     0.00  -0.00   0.00    -0.00   0.00   0.00
  28   6    -0.00  -0.01   0.00    -0.00  -0.02   0.04     0.01  -0.00   0.01
  29   1     0.00  -0.00  -0.00     0.00   0.00   0.00    -0.00  -0.00   0.00
  30   1    -0.00  -0.00   0.00     0.00   0.00   0.00     0.00  -0.00  -0.00
  31   1     0.00   0.00   0.00    -0.00  -0.00  -0.00     0.00   0.00   0.00
  32   1     0.00   0.00   0.00    -0.00  -0.00  -0.00    -0.00   0.00   0.00
  33   1     0.00   0.00   0.00    -0.00  -0.00  -0.00    -0.00   0.00   0.00
  34   1     0.00   0.00   0.00     0.00  -0.00  -0.00    -0.00  -0.00   0.00
  35   1     0.04  -0.05  -0.01    -0.04   0.06   0.00    -0.07   0.11  -0.01
  36   1     0.07   0.02  -0.01    -0.07  -0.02   0.02    -0.13  -0.04   0.02
  37   1    -0.14  -0.01   0.36     0.06  -0.00  -0.22    -0.17  -0.02   0.46
  38   1     0.06  -0.37   0.13    -0.04   0.22  -0.08     0.08  -0.46   0.15
  39   1     0.03  -0.34  -0.11    -0.02   0.32   0.09    -0.03   0.41   0.11
  40   1    -0.24  -0.04  -0.26     0.23   0.04   0.24     0.31   0.06   0.30
  41   1     0.01  -0.00  -0.00     0.03  -0.02  -0.00     0.01  -0.01  -0.01
  42   1    -0.29  -0.16  -0.18    -0.35  -0.16  -0.21     0.06  -0.01   0.02
  43   1    -0.24  -0.18   0.27    -0.28  -0.20   0.31     0.03   0.01  -0.03
  44   1     0.01   0.13  -0.04    -0.00   0.26  -0.08    -0.00  -0.08   0.02
  45   1     0.01   0.08   0.11    -0.01   0.16   0.22     0.00  -0.05  -0.07
  46   1     0.00   0.00   0.00     0.01   0.00   0.00    -0.00  -0.00  -0.00
  47   1     0.01   0.00  -0.02     0.03  -0.01  -0.09     0.00  -0.00  -0.04
  48   1     0.00   0.03  -0.01    -0.03   0.08  -0.04    -0.01   0.03  -0.02
                    112                    113                    114
                        a                      a                      a 
 Frequencies --  1497.9137              1523.1632              1555.6170
 Red. masses --     1.0899                 8.7393                 7.9552
 Frc consts  --     0.0000                 0.0000                 0.0000
 IR Inten    --     1.5420                 8.2639                 8.0963
 Raman Activ --     0.0000                 0.0000                 0.0000
 Depolar     --     0.0000                 0.0000                 0.0000
 Atom AN      X      Y      Z        X      Y      Z        X      Y      Z
   1   8    -0.00   0.00   0.01     0.01   0.01  -0.00    -0.00   0.00   0.00
   2   6     0.01  -0.00  -0.00    -0.07  -0.08  -0.00    -0.00  -0.01  -0.00
   3   6     0.00   0.00  -0.00     0.15   0.42   0.13     0.01   0.04   0.01
   4   6    -0.00  -0.00  -0.00    -0.09  -0.39  -0.14    -0.02  -0.04  -0.01
   5   6     0.00   0.00   0.00    -0.16   0.30   0.19    -0.01   0.03   0.02
   6   6     0.00  -0.00  -0.00     0.05  -0.31  -0.16     0.05  -0.04  -0.04
   7   6    -0.00  -0.00  -0.00     0.31   0.20  -0.02    -0.12  -0.06   0.01
   8   7    -0.00   0.00   0.00    -0.26  -0.19   0.01     0.18   0.05  -0.04
   9   6     0.00  -0.00  -0.00     0.02  -0.01  -0.01    -0.35  -0.27   0.00
  10   6     0.00  -0.00  -0.00    -0.04   0.02   0.02     0.19   0.20   0.02
  11   6    -0.00   0.00   0.00     0.04  -0.05  -0.04     0.00  -0.40  -0.18
  12   6     0.00   0.00  -0.00    -0.07  -0.01   0.02     0.23   0.44   0.11
  13   6    -0.00  -0.00   0.00     0.13  -0.01  -0.05    -0.03  -0.21  -0.08
  14   6    -0.00   0.00   0.00    -0.07   0.04   0.05    -0.11   0.27   0.16
  15  16    -0.00   0.00   0.00    -0.01   0.01   0.01     0.02  -0.01  -0.01
  16   8    -0.00   0.00   0.00     0.01   0.01  -0.00     0.00   0.00  -0.00
  17   7    -0.00  -0.01  -0.00    -0.01   0.01   0.02    -0.00   0.00   0.00
  18   6    -0.00  -0.00   0.00    -0.01   0.00   0.00    -0.00   0.00   0.00
  19   6    -0.00  -0.02   0.03     0.00   0.00  -0.00     0.00   0.00  -0.00
  20   6    -0.00  -0.00  -0.00     0.00  -0.00  -0.00    -0.00  -0.00   0.00
  21   6     0.00   0.00   0.00    -0.00  -0.00   0.00     0.00  -0.00   0.00
  22   7    -0.01  -0.00  -0.00     0.00   0.00   0.00    -0.00   0.00   0.00
  23   6     0.12   0.05  -0.02    -0.00   0.00   0.00    -0.00   0.00   0.00
  24   6    -0.05   0.23   0.07     0.00  -0.00  -0.00     0.00  -0.00  -0.00
  25   7    -0.01   0.04   0.02    -0.00   0.00   0.00    -0.00   0.00   0.00
  26   6     0.03  -0.01  -0.00     0.00  -0.00   0.00     0.00  -0.00  -0.00
  27   8    -0.01  -0.01  -0.00    -0.00  -0.00  -0.00     0.00   0.00   0.00
  28   6    -0.00  -0.01   0.01     0.01   0.00  -0.00     0.00   0.00  -0.00
  29   1     0.00   0.00   0.00     0.13   0.04  -0.03     0.01   0.00  -0.00
  30   1     0.00   0.00   0.00     0.11   0.01  -0.04     0.01   0.00  -0.00
  31   1     0.00  -0.00  -0.00     0.00   0.01   0.00    -0.05   0.05   0.04
  32   1     0.00  -0.00  -0.00    -0.01   0.03   0.02    -0.07   0.08   0.06
  33   1     0.00  -0.00  -0.00    -0.01   0.01   0.01    -0.10  -0.10  -0.01
  34   1     0.00  -0.00  -0.00    -0.03  -0.00   0.01    -0.03  -0.06  -0.02
  35   1     0.00  -0.00   0.00     0.01  -0.02  -0.01     0.00  -0.00  -0.00
  36   1     0.00   0.00   0.00     0.02   0.00  -0.01     0.00   0.00  -0.00
  37   1     0.02   0.00  -0.08    -0.00  -0.00   0.00    -0.00  -0.00   0.00
  38   1    -0.01   0.07  -0.03    -0.00  -0.00  -0.00    -0.00  -0.00  -0.00
  39   1     0.00   0.01   0.00     0.00   0.00   0.00     0.00   0.00  -0.00
  40   1     0.01   0.00   0.01     0.00   0.00   0.00     0.00   0.00   0.00
  41   1    -0.00   0.00   0.00    -0.00  -0.00  -0.00    -0.00   0.00  -0.00
  42   1    -0.26  -0.06  -0.13     0.00  -0.00  -0.00     0.00   0.00   0.00
  43   1    -0.20  -0.10   0.22     0.00  -0.01  -0.00     0.00  -0.00  -0.00
  44   1     0.11  -0.56   0.18    -0.00  -0.00  -0.00    -0.00  -0.00  -0.00
  45   1     0.07  -0.34  -0.49    -0.00  -0.00   0.00    -0.00  -0.00  -0.00
  46   1    -0.00   0.01  -0.00    -0.00  -0.00  -0.00    -0.00  -0.00  -0.00
  47   1     0.01   0.00  -0.03    -0.00  -0.00  -0.00    -0.00  -0.00   0.00
  48   1    -0.01   0.03  -0.01     0.01   0.00  -0.00     0.00   0.00   0.00
                    115                    116                    117
                        a                      a                      a 
 Frequencies --  1563.3353              1609.9744              1656.4525
 Red. masses --     8.9384                10.1890                12.1695
 Frc consts  --     0.0000                 0.0000                 0.0000
 IR Inten    --    21.6156                77.1793               475.1603
 Raman Activ --     0.0000                 0.0000                 0.0000
 Depolar     --     0.0000                 0.0000                 0.0000
 Atom AN      X      Y      Z        X      Y      Z        X      Y      Z
   1   8    -0.00   0.00   0.00     0.00  -0.00  -0.00    -0.34   0.17   0.41
   2   6    -0.01  -0.02  -0.01    -0.00   0.00   0.00     0.40  -0.33  -0.59
   3   6     0.02   0.15   0.06     0.01  -0.05  -0.03    -0.02  -0.00   0.01
   4   6    -0.07  -0.15  -0.04     0.04   0.06   0.01     0.01  -0.00  -0.00
   5   6    -0.07   0.17   0.10     0.04  -0.09  -0.05     0.00   0.00  -0.00
   6   6     0.28  -0.20  -0.19    -0.24   0.11   0.14    -0.01   0.01   0.00
   7   6    -0.38  -0.08   0.10     0.50   0.18  -0.10     0.01   0.00  -0.00
   8   7     0.16   0.12  -0.00    -0.24  -0.20  -0.00    -0.00  -0.00   0.00
   9   6    -0.07   0.02   0.04    -0.30  -0.06   0.08     0.00  -0.00  -0.00
  10   6     0.27  -0.09  -0.14     0.38  -0.01  -0.14    -0.00   0.00   0.00
  11   6    -0.21   0.22   0.17    -0.18   0.10   0.11     0.00  -0.00  -0.00
  12   6     0.19  -0.00  -0.07     0.18   0.08  -0.03    -0.00  -0.00  -0.00
  13   6    -0.36   0.04   0.15    -0.28  -0.01   0.10     0.00  -0.00  -0.00
  14   6     0.22  -0.15  -0.14     0.15  -0.08  -0.09    -0.00   0.00   0.00
  15  16    -0.00  -0.00  -0.00    -0.00   0.01   0.00    -0.00   0.00   0.00
  16   8     0.00   0.00  -0.00    -0.00  -0.00   0.00    -0.01  -0.00   0.01
  17   7    -0.01  -0.00   0.00     0.00   0.00  -0.00     0.02   0.16   0.14
  18   6    -0.00   0.00   0.00     0.00  -0.00  -0.00    -0.00  -0.01  -0.02
  19   6     0.00   0.00  -0.00    -0.00  -0.00   0.00     0.00  -0.00  -0.01
  20   6    -0.00  -0.00  -0.00     0.00  -0.00   0.00    -0.00   0.00  -0.00
  21   6     0.00  -0.00   0.00    -0.00   0.00  -0.00     0.00  -0.01   0.00
  22   7    -0.00   0.00  -0.00     0.00  -0.00   0.00    -0.01   0.01   0.00
  23   6    -0.00   0.00   0.00    -0.00  -0.00  -0.00    -0.01  -0.01  -0.01
  24   6     0.00  -0.00  -0.00    -0.00   0.00   0.00    -0.00  -0.00   0.00
  25   7    -0.00   0.00   0.00     0.00  -0.00  -0.00    -0.00   0.00   0.00
  26   6     0.00  -0.00  -0.00    -0.00   0.00   0.00     0.02   0.00  -0.00
  27   8     0.00   0.00   0.00    -0.00  -0.00  -0.00    -0.00  -0.01   0.00
  28   6     0.00   0.00  -0.00    -0.00  -0.00   0.00     0.00  -0.02  -0.03
  29   1     0.04   0.02  -0.01    -0.01  -0.01   0.00     0.01   0.00  -0.00
  30   1     0.06   0.01  -0.02    -0.03  -0.01   0.01     0.00  -0.00  -0.00
  31   1    -0.06  -0.03   0.01    -0.08  -0.00   0.03     0.00  -0.00  -0.00
  32   1     0.01  -0.09  -0.04    -0.02  -0.04  -0.01     0.00  -0.00  -0.00
  33   1     0.02  -0.04  -0.02    -0.01  -0.05  -0.02     0.00   0.00   0.00
  34   1     0.09   0.01  -0.03     0.05  -0.00  -0.02    -0.00  -0.00  -0.00
  35   1     0.00  -0.00  -0.01    -0.00   0.00   0.00     0.00   0.00   0.01
  36   1     0.00   0.00  -0.00    -0.00  -0.00   0.00     0.01   0.01  -0.02
  37   1    -0.00  -0.00   0.00     0.00   0.00  -0.00     0.00  -0.00   0.00
  38   1    -0.00  -0.00  -0.00     0.00   0.00  -0.00    -0.00  -0.00  -0.00
  39   1     0.00   0.00  -0.00    -0.00  -0.00   0.00    -0.00   0.00   0.00
  40   1     0.00   0.00   0.00    -0.00  -0.00  -0.00     0.00   0.00   0.00
  41   1    -0.00   0.00  -0.00     0.00  -0.00   0.00    -0.01  -0.00  -0.00
  42   1     0.00   0.00   0.00    -0.00  -0.00  -0.00     0.01   0.00   0.00
  43   1     0.00  -0.00  -0.00    -0.00  -0.00   0.00     0.00   0.02   0.00
  44   1    -0.00  -0.00  -0.00     0.00   0.00   0.00    -0.00   0.00  -0.00
  45   1    -0.00  -0.00   0.00     0.00   0.00   0.00    -0.00   0.00   0.00
  46   1    -0.00  -0.00  -0.00     0.00   0.00   0.00    -0.00   0.00  -0.00
  47   1    -0.00   0.00   0.00     0.00   0.00  -0.00    -0.05  -0.01   0.03
  48   1     0.00   0.00  -0.00    -0.00  -0.00   0.00     0.00  -0.03   0.01
                    118                    119                    120
                        a                      a                      a 
 Frequencies --  1784.9141              2887.8803              2899.1583
 Red. masses --    11.8588                 1.0822                 1.0797
 Frc consts  --     0.0000                 0.0000                 0.0000
 IR Inten    --   778.0406                15.6884                70.8436
 Raman Activ --     0.0000                 0.0000                 0.0000
 Depolar     --     0.0000                 0.0000                 0.0000
 Atom AN      X      Y      Z        X      Y      Z        X      Y      Z
   1   8    -0.01   0.00   0.00    -0.00   0.00   0.00     0.00   0.00  -0.00
   2   6     0.01  -0.00  -0.01     0.00  -0.00  -0.00     0.00  -0.00   0.00
   3   6    -0.00  -0.00   0.00    -0.00   0.00  -0.00    -0.00   0.00  -0.00
   4   6     0.00   0.00  -0.00    -0.00   0.00   0.00    -0.00   0.00   0.00
   5   6     0.00  -0.00  -0.00    -0.00  -0.00   0.00    -0.00  -0.00  -0.00
   6   6    -0.00   0.00   0.00    -0.00   0.00   0.00     0.00   0.00   0.00
   7   6     0.00   0.00  -0.00    -0.00  -0.00  -0.00    -0.00   0.00   0.00
   8   7    -0.00  -0.00  -0.00     0.00   0.00  -0.00    -0.00  -0.00  -0.00
   9   6    -0.00   0.00   0.00    -0.00  -0.00   0.00    -0.00  -0.00   0.00
  10   6     0.00   0.00  -0.00     0.00  -0.00  -0.00    -0.00  -0.00  -0.00
  11   6    -0.00   0.00   0.00    -0.00   0.00   0.00    -0.00  -0.00   0.00
  12   6    -0.00  -0.00  -0.00    -0.00   0.00   0.00    -0.00   0.00   0.00
  13   6     0.00  -0.00  -0.00    -0.00   0.00   0.00    -0.00  -0.00   0.00
  14   6    -0.00  -0.00   0.00    -0.00   0.00   0.00     0.00  -0.00  -0.00
  15  16     0.00   0.00   0.00     0.00  -0.00  -0.00     0.00  -0.00  -0.00
  16   8     0.00   0.00  -0.00     0.00  -0.00  -0.00     0.00  -0.00  -0.00
  17   7     0.00   0.00   0.00     0.00   0.00   0.00    -0.00   0.00  -0.00
  18   6     0.00  -0.00  -0.00    -0.00   0.00  -0.00    -0.00   0.00  -0.00
  19   6    -0.00  -0.00   0.00    -0.00   0.00   0.00    -0.00   0.01   0.00
  20   6    -0.00   0.01   0.00    -0.00   0.00  -0.00    -0.00   0.00  -0.00
  21   6    -0.00  -0.02  -0.00     0.00   0.01  -0.00     0.01   0.01  -0.00
  22   7     0.10   0.05  -0.00    -0.00  -0.01   0.00    -0.01  -0.01   0.00
  23   6     0.00   0.01   0.00    -0.03  -0.04   0.15    -0.06  -0.05   0.20
  24   6     0.01   0.01  -0.01     0.00   0.00  -0.23    -0.01   0.02   0.16
  25   7    -0.02   0.13   0.02    -0.00  -0.01  -0.00     0.00   0.01   0.00
  26   6    -0.35  -0.74  -0.02     0.00   0.00  -0.00     0.01  -0.00   0.00
  27   8     0.24   0.49   0.02    -0.00  -0.00   0.00    -0.00  -0.00  -0.00
  28   6    -0.00   0.01  -0.00    -0.00   0.00  -0.00    -0.00   0.00  -0.00
  29   1     0.00   0.00   0.00     0.00  -0.00  -0.00     0.00  -0.00  -0.00
  30   1    -0.00   0.00   0.00     0.00   0.00   0.00     0.00   0.00   0.00
  31   1    -0.00   0.00   0.00     0.00   0.00  -0.00     0.00   0.00   0.00
  32   1     0.00   0.00   0.00     0.00   0.00  -0.00     0.00   0.00  -0.00
  33   1    -0.00  -0.00  -0.00     0.00  -0.00  -0.00     0.00  -0.00  -0.00
  34   1    -0.00  -0.00  -0.00    -0.00  -0.00  -0.00     0.00   0.00   0.00
  35   1     0.00  -0.00   0.00    -0.00   0.00   0.00    -0.00   0.00  -0.00
  36   1     0.00  -0.00  -0.00     0.00  -0.01   0.00     0.00  -0.01   0.00
  37   1     0.00   0.00  -0.00     0.00  -0.01  -0.00     0.01  -0.02  -0.00
  38   1     0.00   0.00  -0.00     0.00  -0.00  -0.00     0.00  -0.00  -0.01
  39   1    -0.00  -0.01  -0.00     0.00  -0.00   0.00     0.00  -0.00   0.00
  40   1    -0.01  -0.00   0.00     0.00  -0.00  -0.00     0.00  -0.01  -0.00
  41   1    -0.03   0.01  -0.00    -0.01  -0.02   0.00    -0.04  -0.05   0.01
  42   1     0.01  -0.01  -0.01     0.20   0.18  -0.49     0.27   0.25  -0.68
  43   1     0.01  -0.01  -0.00    -0.08  -0.02  -0.05    -0.05  -0.02  -0.01
  44   1    -0.02  -0.01   0.00    -0.05   0.21   0.71     0.03  -0.16  -0.54
  45   1    -0.01   0.00  -0.00     0.05  -0.20   0.11    -0.02   0.07  -0.03
  46   1    -0.02  -0.07  -0.02    -0.00  -0.00   0.00     0.00   0.00  -0.00
  47   1    -0.01  -0.00  -0.00     0.00  -0.01   0.00     0.00  -0.01   0.00
  48   1     0.00  -0.00   0.00    -0.00   0.00   0.00    -0.00   0.00   0.00
                    121                    122                    123
                        a                      a                      a 
 Frequencies --  2908.6080              2923.5426              2924.5989
 Red. masses --     1.0738                 1.0736                 1.0716
 Frc consts  --     0.0000                 0.0000                 0.0000
 IR Inten    --     3.0118                 4.4173                56.1798
 Raman Activ --     0.0000                 0.0000                 0.0000
 Depolar     --     0.0000                 0.0000                 0.0000
 Atom AN      X      Y      Z        X      Y      Z        X      Y      Z
   1   8    -0.00   0.00   0.00    -0.00  -0.00  -0.00    -0.00  -0.00   0.00
   2   6    -0.00  -0.00  -0.00     0.00   0.00   0.00    -0.00  -0.00  -0.00
   3   6     0.00   0.00   0.00     0.00   0.00   0.00     0.00   0.00   0.00
   4   6    -0.00  -0.00   0.00    -0.00   0.00   0.00     0.00  -0.00  -0.00
   5   6    -0.00  -0.00  -0.00     0.00   0.00  -0.00    -0.00  -0.00  -0.00
   6   6     0.00   0.00   0.00    -0.00  -0.00   0.00     0.00   0.00  -0.00
   7   6    -0.00   0.00   0.00     0.00  -0.00  -0.00    -0.00   0.00   0.00
   8   7    -0.00   0.00  -0.00     0.00   0.00   0.00    -0.00  -0.00  -0.00
   9   6     0.00  -0.00  -0.00     0.00   0.00   0.00     0.00  -0.00  -0.00
  10   6    -0.00  -0.00  -0.00     0.00   0.00   0.00    -0.00  -0.00   0.00
  11   6    -0.00  -0.00  -0.00     0.00   0.00   0.00     0.00  -0.00  -0.00
  12   6    -0.00   0.00   0.00     0.00  -0.00  -0.00     0.00   0.00  -0.00
  13   6    -0.00  -0.00  -0.00     0.00   0.00  -0.00    -0.00  -0.00   0.00
  14   6     0.00   0.00  -0.00    -0.00   0.00   0.00     0.00  -0.00  -0.00
  15  16     0.00  -0.00  -0.00    -0.00  -0.00   0.00     0.00  -0.00  -0.00
  16   8     0.00  -0.00   0.00    -0.00   0.00  -0.00    -0.00  -0.00   0.00
  17   7     0.00   0.00  -0.00     0.01   0.00  -0.01     0.01   0.02   0.01
  18   6     0.00  -0.00   0.00     0.04  -0.19   0.02    -0.04   0.15  -0.02
  19   6     0.00   0.00  -0.00    -0.01   0.01   0.01     0.00  -0.01  -0.00
  20   6    -0.01   0.01   0.01     0.00  -0.00  -0.00     0.01  -0.01   0.00
  21   6    -0.15  -0.20   0.05     0.02   0.03  -0.01     0.02   0.03  -0.01
  22   7     0.00  -0.02  -0.00    -0.00   0.00  -0.00    -0.00   0.00  -0.00
  23   6    -0.00  -0.00   0.02     0.00   0.00  -0.00     0.00   0.00  -0.01
  24   6    -0.00   0.00   0.01     0.00  -0.00   0.00     0.00  -0.00   0.00
  25   7    -0.00   0.00   0.00     0.00  -0.00   0.00    -0.00  -0.00   0.00
  26   6     0.00   0.00  -0.00     0.00   0.00  -0.00     0.00   0.00  -0.00
  27   8     0.00   0.00   0.00    -0.00  -0.00  -0.00    -0.00  -0.00  -0.00
  28   6    -0.02   0.04  -0.01    -0.06   0.15  -0.01    -0.07   0.18  -0.02
  29   1     0.00  -0.00  -0.00     0.00  -0.00  -0.00    -0.00   0.00   0.00
  30   1     0.00   0.00  -0.00    -0.00   0.00   0.00    -0.00  -0.00  -0.00
  31   1    -0.00   0.00   0.00     0.00  -0.00  -0.00    -0.00  -0.00  -0.00
  32   1     0.00   0.00  -0.00    -0.00  -0.00   0.00    -0.00  -0.00   0.00
  33   1     0.00  -0.00  -0.00    -0.00   0.00   0.00    -0.00   0.00   0.00
  34   1     0.00   0.00   0.00    -0.00  -0.00  -0.00     0.00   0.00   0.00
  35   1    -0.00  -0.00   0.00     0.03  -0.01  -0.00    -0.02   0.02  -0.00
  36   1    -0.00   0.02  -0.00    -0.20   0.71  -0.05     0.17  -0.59   0.04
  37   1     0.00  -0.01  -0.00     0.02  -0.05   0.01    -0.02   0.06  -0.00
  38   1    -0.00   0.00   0.00     0.01  -0.01  -0.02    -0.01   0.00   0.01
  39   1    -0.01   0.00  -0.01     0.00  -0.00   0.00    -0.01   0.00  -0.01
  40   1     0.01  -0.04  -0.00    -0.00   0.01   0.00    -0.01   0.04   0.00
  41   1     0.52   0.76  -0.20    -0.07  -0.11   0.03    -0.07  -0.11   0.03
  42   1     0.02   0.02  -0.05    -0.00  -0.00   0.01    -0.01  -0.01   0.02
  43   1    -0.01  -0.00  -0.01     0.00  -0.00   0.00     0.00  -0.00   0.00
  44   1     0.00  -0.01  -0.02     0.00  -0.00  -0.00    -0.00   0.00   0.00
  45   1    -0.00  -0.00   0.00    -0.00   0.00  -0.00    -0.00   0.01  -0.00
  46   1     0.00   0.00   0.00    -0.00   0.00   0.00    -0.00  -0.00   0.00
  47   1     0.07  -0.18   0.03     0.21  -0.56   0.08     0.25  -0.68   0.10
  48   1    -0.01   0.01   0.01    -0.00   0.01  -0.02    -0.01   0.02  -0.01
                    124                    125                    126
                        a                      a                      a 
 Frequencies --  2954.1121              2975.8823              2983.2130
 Red. masses --     1.0604                 1.0835                 1.0685
 Frc consts  --     0.0000                 0.0000                 0.0000
 IR Inten    --    44.6776                11.1713                 2.5840
 Raman Activ --     0.0000                 0.0000                 0.0000
 Depolar     --     0.0000                 0.0000                 0.0000
 Atom AN      X      Y      Z        X      Y      Z        X      Y      Z
   1   8     0.00   0.00   0.00    -0.00   0.00   0.00     0.00  -0.00  -0.00
   2   6    -0.00  -0.00  -0.00     0.00  -0.00  -0.00    -0.01   0.00   0.00
   3   6     0.00   0.00  -0.00    -0.00  -0.00   0.00     0.00   0.00  -0.00
   4   6     0.00   0.00  -0.00     0.00   0.00  -0.00    -0.00  -0.00  -0.00
   5   6     0.00   0.00   0.00     0.00   0.00  -0.00     0.00  -0.00  -0.00
   6   6    -0.00  -0.00   0.00     0.00   0.00   0.00    -0.00  -0.00   0.00
   7   6    -0.00  -0.00   0.00    -0.00   0.00   0.00     0.00   0.00   0.00
   8   7     0.00   0.00  -0.00    -0.00  -0.00  -0.00    -0.00  -0.00  -0.00
   9   6     0.00   0.00   0.00     0.00   0.00  -0.00     0.00  -0.00  -0.00
  10   6    -0.00   0.00   0.00    -0.00   0.00   0.00    -0.00  -0.00  -0.00
  11   6     0.00   0.00  -0.00     0.00   0.00  -0.00    -0.00  -0.00  -0.00
  12   6     0.00  -0.00  -0.00     0.00   0.00   0.00    -0.00   0.00   0.00
  13   6     0.00   0.00   0.00    -0.00  -0.00  -0.00    -0.00   0.00   0.00
  14   6    -0.00   0.00   0.00     0.00   0.00  -0.00     0.00   0.00  -0.00
  15  16    -0.00  -0.00   0.00    -0.00  -0.00  -0.00     0.00   0.00  -0.00
  16   8    -0.00   0.00   0.00    -0.00   0.00   0.00     0.00   0.00   0.00
  17   7     0.00   0.00   0.00     0.00  -0.00   0.00    -0.00  -0.00  -0.00
  18   6     0.00  -0.00   0.00    -0.00   0.01   0.00    -0.00   0.00   0.00
  19   6    -0.00   0.00  -0.00    -0.05   0.10   0.06    -0.01   0.02   0.02
  20   6    -0.00   0.00  -0.00     0.10  -0.22   0.02    -0.00   0.01   0.00
  21   6    -0.00  -0.00   0.00    -0.00  -0.01   0.00    -0.00  -0.00   0.00
  22   7     0.00   0.00   0.00     0.00   0.00  -0.00    -0.01  -0.01  -0.00
  23   6    -0.00  -0.01   0.02     0.00   0.00   0.00    -0.18  -0.05  -0.16
  24   6     0.06  -0.21   0.09     0.00  -0.00   0.00    -0.00  -0.00  -0.01
  25   7    -0.00  -0.01  -0.00    -0.00  -0.00  -0.00     0.00   0.00  -0.00
  26   6    -0.00   0.00   0.00    -0.00  -0.00   0.00     0.00  -0.00  -0.00
  27   8    -0.00  -0.00  -0.00     0.00   0.00  -0.00     0.00   0.00   0.00
  28   6     0.00  -0.00  -0.00     0.00  -0.01   0.00    -0.01   0.01   0.01
  29   1     0.00  -0.00   0.00     0.00  -0.00  -0.00    -0.00   0.00   0.00
  30   1    -0.00  -0.00  -0.00    -0.00  -0.00  -0.00     0.00  -0.00  -0.00
  31   1    -0.00  -0.00  -0.00    -0.00  -0.00  -0.00     0.00   0.00   0.00
  32   1    -0.00  -0.00   0.00    -0.00  -0.00   0.00     0.00   0.00  -0.00
  33   1    -0.00   0.00   0.00     0.00  -0.00  -0.00     0.00  -0.00  -0.00
  34   1    -0.00  -0.00  -0.00     0.00   0.00   0.00    -0.00  -0.00  -0.00
  35   1    -0.00  -0.00   0.00    -0.01  -0.00   0.00    -0.00  -0.00   0.00
  36   1    -0.00   0.00  -0.00     0.00  -0.01  -0.00     0.00  -0.01   0.00
  37   1     0.00  -0.00  -0.00     0.09  -0.31   0.02     0.02  -0.06   0.00
  38   1    -0.00   0.00   0.00     0.11  -0.06  -0.23     0.03  -0.02  -0.07
  39   1     0.00  -0.00   0.00    -0.13   0.00  -0.13     0.00   0.00   0.00
  40   1     0.00  -0.01  -0.00    -0.24   0.81   0.06     0.01  -0.03  -0.00
  41   1     0.00   0.00  -0.00     0.02   0.03  -0.01     0.01   0.01  -0.00
  42   1     0.03   0.03  -0.07    -0.00   0.00   0.00     0.02   0.03  -0.12
  43   1    -0.01  -0.00  -0.01    -0.01  -0.00  -0.01     0.63   0.17   0.70
  44   1    -0.00   0.04   0.26     0.00  -0.00  -0.00     0.00   0.01   0.04
  45   1    -0.16   0.72  -0.57    -0.00   0.00  -0.00     0.00  -0.01   0.00
  46   1    -0.00  -0.00   0.00     0.00  -0.00   0.00    -0.00   0.00   0.00
  47   1    -0.00   0.00  -0.00    -0.01   0.03  -0.00     0.00  -0.00   0.00
  48   1    -0.00   0.00   0.00     0.00  -0.00  -0.01     0.02  -0.02  -0.05
                    127                    128                    129
                        a                      a                      a 
 Frequencies --  2989.3364              2999.1526              2999.3927
 Red. masses --     1.0890                 1.0597                 1.0714
 Frc consts  --     0.0000                 0.0000                 0.0000
 IR Inten    --    45.6101                33.5931                13.5049
 Raman Activ --     0.0000                 0.0000                 0.0000
 Depolar     --     0.0000                 0.0000                 0.0000
 Atom AN      X      Y      Z        X      Y      Z        X      Y      Z
   1   8    -0.00   0.00   0.00     0.00   0.00   0.00     0.00   0.00   0.00
   2   6    -0.00  -0.00  -0.00     0.00  -0.00   0.00    -0.00  -0.00  -0.00
   3   6    -0.00   0.00   0.00    -0.00   0.00   0.00    -0.00  -0.00   0.00
   4   6     0.00  -0.00  -0.00     0.00  -0.00  -0.00     0.00   0.00  -0.00
   5   6    -0.00   0.00   0.00    -0.00  -0.00  -0.00     0.00   0.00  -0.00
   6   6     0.00   0.00  -0.00     0.00   0.00   0.00     0.00   0.00  -0.00
   7   6    -0.00   0.00   0.00     0.00  -0.00  -0.00    -0.00   0.00   0.00
   8   7    -0.00  -0.00  -0.00    -0.00   0.00  -0.00    -0.00  -0.00  -0.00
   9   6     0.00  -0.00  -0.00    -0.00  -0.00   0.00    -0.00  -0.00  -0.00
  10   6    -0.00  -0.00  -0.00     0.00  -0.00  -0.00    -0.00  -0.00  -0.00
  11   6     0.00  -0.00  -0.00    -0.00  -0.00   0.00    -0.00  -0.00   0.00
  12   6     0.00   0.00  -0.00    -0.00   0.00   0.00    -0.00   0.00   0.00
  13   6    -0.00  -0.00  -0.00     0.00   0.00   0.00    -0.00  -0.00  -0.00
  14   6     0.00  -0.00  -0.00    -0.00  -0.00   0.00     0.00  -0.00  -0.00
  15  16     0.00  -0.00  -0.00     0.00   0.00  -0.00     0.00   0.00   0.00
  16   8    -0.00  -0.00   0.00     0.00   0.00   0.00    -0.00  -0.00  -0.00
  17   7     0.00   0.00  -0.00    -0.00   0.00   0.00    -0.01   0.00   0.01
  18   6    -0.00   0.02   0.00     0.01  -0.01   0.00    -0.00   0.01  -0.00
  19   6    -0.11   0.13   0.19     0.02  -0.15   0.05    -0.02   0.09  -0.02
  20   6    -0.07   0.09  -0.03    -0.07  -0.05  -0.09    -0.00   0.04   0.01
  21   6    -0.00   0.00  -0.00    -0.01  -0.01   0.00    -0.00   0.00   0.01
  22   7     0.00   0.00   0.00    -0.00  -0.00  -0.00     0.00   0.00  -0.00
  23   6     0.02   0.01   0.01    -0.00  -0.00   0.00     0.01   0.00   0.01
  24   6     0.00   0.00   0.00    -0.00  -0.00   0.00     0.00  -0.00   0.00
  25   7    -0.00  -0.00   0.00    -0.00   0.00  -0.00    -0.00   0.00   0.00
  26   6     0.00   0.00   0.00     0.00  -0.00  -0.00     0.00   0.00   0.00
  27   8    -0.00  -0.00  -0.00    -0.00   0.00   0.00    -0.00  -0.00  -0.00
  28   6     0.01  -0.01  -0.02    -0.04   0.03   0.09    -0.09   0.08   0.20
  29   1    -0.00   0.00   0.00    -0.00   0.00   0.00    -0.00   0.00   0.00
  30   1    -0.00  -0.00  -0.00     0.00   0.00   0.00    -0.00  -0.00  -0.00
  31   1    -0.00   0.00   0.00     0.00   0.00   0.00     0.00   0.00   0.00
  32   1    -0.00  -0.00  -0.00     0.00   0.00  -0.00     0.00   0.00  -0.00
  33   1    -0.00   0.00   0.00     0.00  -0.00  -0.00     0.00  -0.00  -0.00
  34   1     0.00   0.00   0.00    -0.00  -0.00  -0.00     0.00   0.00   0.00
  35   1    -0.02  -0.01   0.00    -0.03  -0.02   0.01    -0.00   0.00   0.00
  36   1     0.02  -0.05   0.00    -0.01   0.04  -0.00     0.01  -0.04   0.00
  37   1     0.06  -0.23   0.04    -0.19   0.61  -0.02     0.11  -0.37   0.01
  38   1     0.34  -0.22  -0.73     0.09  -0.08  -0.18    -0.04   0.04   0.07
  39   1     0.16  -0.03   0.16     0.36  -0.09   0.33    -0.04   0.01  -0.03
  40   1     0.08  -0.29  -0.03    -0.10   0.28   0.01     0.05  -0.14  -0.01
  41   1    -0.01  -0.01   0.00     0.02   0.02  -0.01    -0.00  -0.00   0.00
  42   1    -0.01  -0.01   0.03     0.01   0.01  -0.02    -0.00  -0.00   0.02
  43   1    -0.06  -0.02  -0.07     0.00   0.00   0.00    -0.05  -0.01  -0.06
  44   1    -0.00  -0.00  -0.00    -0.00  -0.00  -0.00    -0.00  -0.00  -0.00
  45   1     0.00  -0.00   0.00    -0.00   0.00  -0.00    -0.00   0.00  -0.00
  46   1     0.00  -0.00   0.00     0.00   0.00   0.00     0.00   0.00  -0.00
  47   1     0.00  -0.01   0.00    -0.01   0.02   0.01    -0.01   0.02   0.02
  48   1    -0.03   0.03   0.07     0.15  -0.14  -0.33     0.33  -0.31  -0.74
                    130                    131                    132
                        a                      a                      a 
 Frequencies --  3003.9961              3061.1279              3086.1854
 Red. masses --     1.0628                 1.0713                 1.0755
 Frc consts  --     0.0000                 0.0000                 0.0000
 IR Inten    --    38.9211                 7.4499                 4.0258
 Raman Activ --     0.0000                 0.0000                 0.0000
 Depolar     --     0.0000                 0.0000                 0.0000
 Atom AN      X      Y      Z        X      Y      Z        X      Y      Z
   1   8    -0.00   0.00   0.00     0.00  -0.00  -0.00     0.00   0.00   0.00
   2   6     0.00  -0.00  -0.00    -0.00   0.00   0.00    -0.00  -0.00  -0.00
   3   6     0.00   0.00   0.00     0.00  -0.00  -0.00     0.00  -0.00  -0.00
   4   6     0.00  -0.00  -0.00     0.00   0.00   0.00    -0.00   0.00   0.00
   5   6    -0.00   0.00   0.00    -0.00  -0.00   0.00     0.00   0.00   0.00
   6   6     0.00   0.00   0.00    -0.00  -0.00  -0.00     0.00   0.00  -0.00
   7   6    -0.00   0.00   0.00    -0.00   0.00   0.00    -0.00  -0.00  -0.00
   8   7     0.00   0.00  -0.00    -0.00  -0.00  -0.00     0.00   0.00  -0.00
   9   6     0.00   0.00   0.00     0.00   0.00  -0.00    -0.00  -0.00  -0.00
  10   6    -0.00   0.00   0.00    -0.00  -0.00  -0.00    -0.00  -0.03  -0.01
  11   6     0.00   0.00  -0.00    -0.00  -0.00   0.00     0.15   0.08  -0.02
  12   6     0.00  -0.00  -0.00    -0.00   0.00   0.00    -0.14   0.09   0.09
  13   6    -0.00  -0.00  -0.00     0.00   0.00   0.00    -0.01  -0.06  -0.02
  14   6    -0.00   0.00   0.00     0.00   0.00  -0.00    -0.00  -0.00  -0.00
  15  16     0.00  -0.00  -0.00    -0.00   0.00   0.00    -0.00   0.00   0.00
  16   8     0.00   0.00   0.00    -0.00  -0.00  -0.00    -0.00   0.00   0.00
  17   7    -0.00   0.00   0.00    -0.01  -0.00   0.00     0.00   0.00   0.00
  18   6     0.01  -0.01   0.00    -0.21  -0.14   0.05    -0.00  -0.00   0.00
  19   6     0.00  -0.09   0.08    -0.01  -0.01   0.01     0.00  -0.00  -0.00
  20   6     0.14  -0.01   0.14     0.00  -0.00  -0.00     0.00  -0.00   0.00
  21   6     0.00   0.00   0.01    -0.00  -0.00   0.00     0.00   0.00  -0.00
  22   7    -0.00   0.00  -0.00    -0.00  -0.00  -0.00     0.00  -0.00   0.00
  23   6     0.00  -0.00   0.00    -0.00  -0.00   0.00    -0.00  -0.00  -0.00
  24   6     0.00  -0.00   0.00     0.00  -0.00   0.00     0.00  -0.00  -0.00
  25   7     0.00  -0.00  -0.00    -0.00   0.00  -0.00    -0.00  -0.00   0.00
  26   6     0.00   0.00   0.00     0.00  -0.00   0.00    -0.00   0.00   0.00
  27   8    -0.00  -0.00  -0.00    -0.00   0.00  -0.00     0.00   0.00  -0.00
  28   6    -0.02   0.01   0.04    -0.00   0.00   0.00     0.00  -0.00  -0.00
  29   1    -0.00   0.00   0.00    -0.00   0.00  -0.00     0.00  -0.00  -0.00
  30   1    -0.00  -0.00  -0.00     0.00   0.00   0.00    -0.00  -0.00  -0.00
  31   1    -0.00  -0.00  -0.00     0.00   0.00   0.00     0.01   0.11   0.04
  32   1    -0.00  -0.00   0.00     0.00   0.00  -0.00    -0.55  -0.27   0.08
  33   1    -0.00   0.00   0.00     0.00  -0.00  -0.00     0.51  -0.32  -0.32
  34   1     0.00   0.00   0.00    -0.00  -0.00  -0.00     0.04   0.24   0.09
  35   1    -0.02  -0.01   0.00     0.77   0.55  -0.18     0.00   0.00  -0.00
  36   1    -0.01   0.03  -0.00    -0.02  -0.05   0.01    -0.00   0.00   0.00
  37   1    -0.13   0.42  -0.01    -0.01   0.03  -0.00    -0.00   0.00  -0.00
  38   1     0.14  -0.10  -0.28     0.01  -0.01  -0.03    -0.00   0.00   0.00
  39   1    -0.56   0.14  -0.52     0.00  -0.00   0.00    -0.00   0.00  -0.00
  40   1     0.05  -0.11   0.01    -0.00   0.01   0.00    -0.00  -0.00   0.00
  41   1    -0.00  -0.00   0.00     0.00   0.01  -0.00    -0.00  -0.00   0.00
  42   1     0.00   0.00  -0.01     0.00   0.00  -0.00     0.00   0.00  -0.00
  43   1    -0.01  -0.00  -0.01     0.00  -0.00   0.00     0.00   0.00   0.00
  44   1     0.00  -0.00  -0.00     0.00  -0.00   0.00    -0.00   0.00   0.00
  45   1    -0.00   0.00  -0.00    -0.00   0.00  -0.00    -0.00   0.00  -0.00
  46   1    -0.00  -0.00   0.00    -0.00   0.00   0.00     0.00   0.00  -0.00
  47   1    -0.01   0.01   0.00    -0.00   0.01  -0.00    -0.00   0.00  -0.00
  48   1     0.06  -0.06  -0.14     0.01  -0.01  -0.02    -0.00   0.00   0.00
                    133                    134                    135
                        a                      a                      a 
 Frequencies --  3093.7734              3102.7859              3113.1660
 Red. masses --     1.0812                 1.0878                 1.0861
 Frc consts  --     0.0000                 0.0000                 0.0000
 IR Inten    --    28.0935                36.0021                16.4449
 Raman Activ --     0.0000                 0.0000                 0.0000
 Depolar     --     0.0000                 0.0000                 0.0000
 Atom AN      X      Y      Z        X      Y      Z        X      Y      Z
   1   8    -0.00   0.00   0.00    -0.00  -0.00   0.00     0.00  -0.00  -0.00
   2   6     0.00  -0.00  -0.00     0.00   0.00   0.00    -0.00  -0.00   0.00
   3   6     0.00  -0.00  -0.00    -0.00   0.00   0.00     0.00   0.00  -0.00
   4   6    -0.00   0.00   0.00     0.00  -0.00  -0.00     0.00  -0.00  -0.00
   5   6     0.00   0.00  -0.00    -0.00  -0.00  -0.00    -0.00  -0.00  -0.00
   6   6    -0.00   0.00   0.00    -0.00  -0.00  -0.00    -0.00   0.00   0.00
   7   6     0.00  -0.00  -0.00     0.00   0.00   0.00     0.00   0.00   0.00
   8   7    -0.00  -0.00  -0.00    -0.00  -0.00   0.00    -0.00  -0.00  -0.00
   9   6     0.00   0.00   0.00    -0.00  -0.00   0.00    -0.01   0.00   0.00
  10   6     0.01   0.05   0.02     0.01   0.05   0.02     0.03   0.24   0.10
  11   6    -0.16  -0.08   0.02    -0.06  -0.03   0.01     0.08   0.04  -0.01
  12   6    -0.09   0.05   0.05    -0.12   0.07   0.08     0.02  -0.02  -0.02
  13   6    -0.02  -0.15  -0.06     0.03   0.20   0.08    -0.00  -0.02  -0.01
  14   6    -0.00  -0.00  -0.00     0.01   0.00  -0.00    -0.00  -0.00  -0.00
  15  16     0.00   0.00  -0.00    -0.00   0.00   0.00    -0.00  -0.00  -0.00
  16   8     0.00   0.00   0.00     0.00  -0.00  -0.00    -0.00  -0.00  -0.00
  17   7    -0.00   0.00   0.00    -0.00  -0.00  -0.00     0.00   0.00   0.00
  18   6    -0.00  -0.00   0.00     0.00   0.00  -0.00    -0.00  -0.00   0.00
  19   6     0.00  -0.00  -0.00    -0.00   0.00   0.00    -0.00   0.00  -0.00
  20   6     0.00  -0.00   0.00     0.00   0.00   0.00    -0.00   0.00  -0.00
  21   6     0.00  -0.00  -0.00     0.00   0.00   0.00    -0.00   0.00  -0.00
  22   7    -0.00   0.00   0.00    -0.00  -0.00  -0.00     0.00  -0.00   0.00
  23   6    -0.00   0.00  -0.00     0.00   0.00   0.00    -0.00  -0.00  -0.00
  24   6     0.00  -0.00  -0.00     0.00   0.00   0.00    -0.00   0.00  -0.00
  25   7    -0.00   0.00  -0.00    -0.00   0.00  -0.00     0.00  -0.00   0.00
  26   6     0.00   0.00  -0.00     0.00   0.00  -0.00    -0.00  -0.00   0.00
  27   8    -0.00  -0.00   0.00    -0.00  -0.00  -0.00     0.00   0.00  -0.00
  28   6     0.00   0.00  -0.00    -0.00   0.00  -0.00    -0.00  -0.00   0.00
  29   1     0.00  -0.00  -0.00     0.00  -0.00  -0.00    -0.00   0.00   0.00
  30   1    -0.00  -0.00  -0.00     0.00   0.00   0.00     0.00   0.00   0.00
  31   1    -0.03  -0.19  -0.07    -0.03  -0.17  -0.07    -0.12  -0.84  -0.33
  32   1     0.57   0.28  -0.08     0.22   0.11  -0.03    -0.24  -0.12   0.03
  33   1     0.30  -0.19  -0.19     0.40  -0.25  -0.26    -0.08   0.05   0.05
  34   1     0.08   0.52   0.20    -0.11  -0.67  -0.26     0.01   0.05   0.02
  35   1     0.00   0.00  -0.00    -0.00  -0.00   0.00     0.00   0.00  -0.00
  36   1    -0.00   0.00  -0.00     0.00  -0.00   0.00    -0.00  -0.00   0.00
  37   1    -0.00   0.00  -0.00     0.00  -0.00   0.00     0.00  -0.00   0.00
  38   1    -0.00   0.00   0.00     0.00  -0.00  -0.00    -0.00   0.00   0.00
  39   1    -0.00   0.00  -0.00    -0.00   0.00  -0.00     0.00  -0.00   0.00
  40   1     0.00  -0.00   0.00     0.00  -0.00   0.00    -0.00   0.00  -0.00
  41   1    -0.00  -0.00   0.00    -0.00  -0.00   0.00     0.00   0.00  -0.00
  42   1    -0.00  -0.00   0.00    -0.00  -0.00   0.00     0.00   0.00  -0.00
  43   1     0.00   0.00   0.00    -0.00  -0.00  -0.00     0.00   0.00   0.00
  44   1    -0.00   0.00   0.00     0.00  -0.00  -0.00     0.00  -0.00  -0.00
  45   1    -0.00   0.00  -0.00     0.00  -0.00   0.00     0.00  -0.00   0.00
  46   1     0.00  -0.00   0.00    -0.00   0.00   0.00     0.00   0.00  -0.00
  47   1     0.00  -0.00   0.00     0.00  -0.00   0.00    -0.00   0.00  -0.00
  48   1    -0.00   0.00   0.00     0.00   0.00   0.00     0.00  -0.00  -0.00
                    136                    137                    138
                        a                      a                      a 
 Frequencies --  3194.9265              3205.2928              3503.0403
 Red. masses --     1.0842                 1.0941                 1.0728
 Frc consts  --     0.0000                 0.0000                 0.0000
 IR Inten    --     2.4347                 0.8117                 8.0268
 Raman Activ --     0.0000                 0.0000                 0.0000
 Depolar     --     0.0000                 0.0000                 0.0000
 Atom AN      X      Y      Z        X      Y      Z        X      Y      Z
   1   8     0.00  -0.00  -0.00    -0.00   0.00   0.00    -0.00   0.00   0.00
   2   6    -0.00   0.00   0.00    -0.00  -0.00  -0.00     0.00  -0.00   0.00
   3   6    -0.01  -0.01  -0.00     0.00   0.01   0.00    -0.00   0.00   0.00
   4   6    -0.15   0.14   0.12     0.10  -0.09  -0.08     0.00  -0.00  -0.00
   5   6    -0.07  -0.12  -0.03    -0.13  -0.21  -0.04    -0.00  -0.00  -0.00
   6   6    -0.00   0.00   0.00    -0.01   0.01   0.01    -0.00  -0.00   0.00
   7   6    -0.00  -0.00  -0.00    -0.00  -0.00  -0.00     0.00   0.00   0.00
   8   7     0.00   0.00   0.00     0.00   0.00   0.00     0.00  -0.00  -0.00
   9   6     0.00   0.00   0.00     0.00   0.00   0.00    -0.00   0.00   0.00
  10   6    -0.00  -0.00  -0.00    -0.00  -0.00  -0.00    -0.00  -0.00  -0.00
  11   6     0.00   0.00   0.00    -0.00   0.00   0.00    -0.00  -0.00   0.00
  12   6     0.00  -0.00  -0.00    -0.00  -0.00  -0.00    -0.00   0.00   0.00
  13   6    -0.00  -0.00  -0.00     0.00  -0.00  -0.00     0.00   0.00   0.00
  14   6    -0.00   0.00   0.00    -0.00   0.00   0.00    -0.00   0.00   0.00
  15  16    -0.00  -0.00  -0.00     0.00   0.00  -0.00     0.00  -0.00  -0.00
  16   8     0.00  -0.00  -0.00     0.00   0.00   0.00     0.00  -0.00  -0.00
  17   7     0.00  -0.00   0.00    -0.00   0.00   0.00     0.00   0.00   0.00
  18   6    -0.00   0.00  -0.00     0.00  -0.00   0.00     0.00  -0.00  -0.00
  19   6    -0.00   0.00   0.00    -0.00   0.00  -0.00     0.00  -0.00   0.00
  20   6    -0.00   0.00   0.00     0.00  -0.00   0.00     0.00  -0.00   0.00
  21   6     0.00   0.00   0.00     0.00  -0.00  -0.00    -0.00   0.00  -0.00
  22   7    -0.00  -0.00  -0.00    -0.00   0.00   0.00     0.00  -0.00  -0.00
  23   6    -0.00   0.00  -0.00     0.00   0.00   0.00     0.00  -0.00  -0.00
  24   6    -0.00  -0.00  -0.00     0.00  -0.00   0.00    -0.00   0.00   0.00
  25   7    -0.00   0.00   0.00     0.00   0.00  -0.00    -0.25   0.01   0.07
  26   6     0.00   0.00   0.00     0.00   0.00  -0.00    -0.01  -0.00   0.00
  27   8    -0.00  -0.00  -0.00    -0.00  -0.00   0.00     0.00  -0.00  -0.00
  28   6    -0.00   0.00   0.00     0.00  -0.00  -0.00    -0.00   0.00  -0.00
  29   1     0.52  -0.48  -0.41    -0.32   0.29   0.25    -0.00   0.00   0.00
  30   1     0.26   0.42   0.09     0.42   0.68   0.14    -0.00   0.00   0.00
  31   1     0.00   0.00   0.00     0.00   0.00   0.00     0.00   0.00   0.00
  32   1    -0.00  -0.00   0.00    -0.00   0.00   0.00     0.00   0.00  -0.00
  33   1    -0.00   0.00   0.00     0.00  -0.00  -0.00     0.00  -0.00  -0.00
  34   1     0.00   0.00   0.00     0.00   0.00   0.00    -0.00  -0.00  -0.00
  35   1    -0.00  -0.00  -0.00    -0.00  -0.00   0.00     0.00  -0.00  -0.00
  36   1     0.00  -0.00  -0.00    -0.00   0.00   0.00    -0.00   0.00  -0.00
  37   1     0.00  -0.00   0.00     0.00  -0.00  -0.00     0.00   0.00  -0.00
  38   1     0.00  -0.00  -0.00    -0.00   0.00   0.00     0.00   0.00  -0.00
  39   1     0.00  -0.00   0.00    -0.00   0.00  -0.00    -0.00  -0.00  -0.00
  40   1     0.00  -0.00  -0.00     0.00   0.00   0.00     0.00  -0.00  -0.00
  41   1    -0.00  -0.00   0.00     0.00   0.00  -0.00    -0.00  -0.00   0.00
  42   1    -0.00  -0.00   0.00     0.00  -0.00  -0.00     0.00   0.00  -0.00
  43   1     0.00   0.00   0.00    -0.00  -0.00  -0.00     0.00   0.00   0.00
  44   1    -0.00  -0.00  -0.00     0.00   0.00   0.00     0.00   0.00   0.00
  45   1    -0.00   0.00  -0.00    -0.00   0.00  -0.00    -0.00   0.00  -0.00
  46   1     0.00  -0.00  -0.00    -0.00   0.00   0.00     0.92  -0.05  -0.28
  47   1     0.00  -0.00   0.00    -0.00   0.00  -0.00    -0.00   0.00  -0.00
  48   1     0.00  -0.00  -0.00    -0.00   0.00   0.00    -0.00   0.00   0.00
