21
 xtb: 6.7.1 (30c6303)
C            1.19112073440864        0.36978061003316        0.02191341539209
C           -0.04445436964688        1.02077289707040        0.01513056656688
C           -1.21907483774189        0.28155921832069       -0.01429040425119
C           -1.14117631604679       -1.11598864437892       -0.03813490929946
C            0.08332127467320       -1.75184775951742       -0.03267602846430
C            1.25914862935697       -1.01991651034260       -0.00245063955516
C            2.39062540806765        1.22707922828517        0.05540796008691
O            2.39287519512100        2.42124898440684        0.07094992113303
O            3.55192197691008        0.45640778899392        0.11939066200977
C            4.78943558653381        0.98947710489411        0.02517003830966
O            5.10525659239687        2.13043654730053       -0.19851306875722
O           -2.46688945170734        0.80654217149622       -0.02524481654353
H           -0.04289625863426        2.09904458816323        0.00977537060670
H           -2.06248462922944       -1.67683085837537       -0.01764576619783
H            0.12287991715053       -2.83044701992503       -0.01496005188453
H            2.21586517893189       -1.51546349695615        0.00077554990458
H            5.49591517904931        0.13855702328063        0.04800848850627
C           -2.60957076829924        2.20977029324749        0.00086099576476
H           -2.16710965791057        2.65250359594074        0.89751756937761
H           -2.15973533796969        2.66150700322407       -0.88907888245080
H           -3.68222744808494        2.39401295302104       -0.00324188838157
