48
 energy: -80.263135608279 gnorm: 0.000789918471 xtb: 6.7.1 (30c6303)
O           -1.71003188912707        0.50494036423355        2.49516687247011
C           -0.96946509073133        0.11616102177028        1.59758036099612
C            0.27124944145657        0.87383684819379        1.34627530562690
C            0.54335662025562        2.14492127628991        1.80290356563777
C            1.86357651662769        2.43334558390985        1.42980542352147
C            2.32627747193159        1.31139970088262        0.77590260117135
C            3.59678789358917        1.03454467824269        0.19093906939071
N            4.59611874758436        1.84138529961626        0.18985167301949
C            5.68021126354248        1.31264735414852       -0.43520478202848
C            6.91538485004048        1.93749398719856       -0.59786932739398
C            7.92015616887384        1.26390135769645       -1.25685876819066
C            7.71860002378987       -0.02167815188775       -1.75797967198843
C            6.50413628194806       -0.66222544821709       -1.61009630470078
C            5.48881492923470        0.00740223511471       -0.94907732944013
S            3.87253543978190       -0.52816335433695       -0.60819729944233
O            1.35974740128755        0.37079930798076        0.72503412192907
N           -1.25552075393454       -0.98083584469108        0.86290664659352
C           -0.65749522801120       -1.36940467188217       -0.39196925546156
C           -1.69598865706893       -1.21578510913460       -1.50402464919387
C           -2.90046118000570       -2.10721066623576       -1.22082333501615
C           -3.49026988040073       -1.89333616701289        0.18497711853992
N           -4.42194940507719       -0.79815727526213        0.25894123697676
C           -4.11063586881879        0.61239383241075        0.33048693602069
C           -5.47647984303766        1.25439023803791        0.63160734394718
N           -6.39919080677906        0.18136033316626        0.34249466574668
C           -5.76721617014206       -1.03399194125274        0.30058973147071
O           -6.29946138762333       -2.12076510048443        0.26770450873548
C           -2.37902378105880       -1.81410567422936        1.24397678893246
H           -0.13921821011167        2.77177190700628        2.33814207948894
H            2.42221667136850        3.32767341972665        1.60868459988269
H            7.05822636443837        2.93097434869738       -0.20486412523239
H            8.88162892556937        1.73666614638247       -1.38884553733226
H            8.52452939153630       -0.52564924247376       -2.26953286535829
H            6.34502583446820       -1.65699579052971       -1.99590496179356
H            0.21842038922981       -0.76459110442518       -0.60816121491878
H           -0.34340500400226       -2.41736267897342       -0.32074009505790
H           -1.99890224800355       -0.16939981124597       -1.56362564920939
H           -1.24721840079883       -1.49260699383528       -2.45928231261431
H           -3.68538850323280       -1.93686910916314       -1.95868596987224
H           -2.58958566596757       -3.15107865264066       -1.30102836377400
H           -4.11387249843182       -2.76722400163431        0.41841752886975
H           -3.71094592414441        0.97367094948227       -0.62491235517849
H           -3.39005089887226        0.82050164258071        1.12365289364644
H           -5.54193263278499        1.57457000761997        1.67924643526700
H           -5.67623156820275        2.11798059634493       -0.00820388700277
H           -7.35742586796773        0.22767899588384        0.64289648440478
H           -1.99794829708043       -2.82803647739276        1.41149255058664
H           -2.78168026898737       -1.42693580764707        2.18155533730613
